opti conv nosymm shellonly
name     ReferenceDataBase/BEB
switch_min rfo gnorm 0.08
cuts 1.1
stepmx opt 0.1
switch_stepmx 0.3 gnorm 0.005
maxcyc 500
cell
 17.60490  17.64200  14.32880  90.00030 113.84020  89.99980
fractional
Si        0.6034073      0.9769114      0.3759853       0.0000000
Si        0.3849534      0.9793634      0.1102078       0.0000000
Si        0.1014876      0.4793692      0.3815072       0.0000000
Si        0.8830457      0.4769163      0.1157373       0.0000000
Si        0.3849568      0.0177653      0.6102113       0.0000000
Si        0.6033987      0.0202181      0.8759812       0.0000000
Si        0.8830371      0.5202227      0.6157331       0.0000000
Si        0.1014911      0.5177707      0.8815108       0.0000000
Si        0.4770409      0.8521196      0.3813047       0.0000000
Si        0.5113216      0.8531033      0.1100592       0.0000000
Si        0.9751210      0.3531075      0.3816583       0.0000000
Si        0.0094072      0.3521202      0.1104067       0.0000000
Si        0.5113233      0.1440270      0.6100600       0.0000000
Si        0.4770373      0.1450142      0.8813120       0.0000000
Si        0.0094036      0.6450143      0.6104140       0.0000000
Si        0.9751227      0.6440308      0.8816590       0.0000000
Si        0.6986576      0.7074580      0.6089944       0.0000000
Si        0.2870521      0.7071393      0.8819686       0.0000000
Si        0.1993825      0.2071400      0.6097415       0.0000000
Si        0.7877975      0.2074593      0.8827303       0.0000000
Si        0.2870618      0.2899943      0.3819768       0.0000000
Si        0.6986468      0.2896749      0.1089883       0.0000000
Si        0.7877868      0.7896764      0.3827242       0.0000000
Si        0.1993922      0.7899950      0.1097498       0.0000000
Si        0.8247522      0.8318153      0.6034206       0.0000000
Si        0.1642585      0.8353276      0.8909200       0.0000000
Si        0.3221874      0.3353224      0.6008068       0.0000000
Si        0.6616922      0.3318132      0.8882949       0.0000000
Si        0.1642570      0.1618119      0.3909117       0.0000000
Si        0.8247522      0.1653212      0.1034238       0.0000000
Si        0.6616921      0.6653188      0.3882981       0.0000000
Si        0.3221858      0.6618066      0.1007983       0.0000000
Si        0.5780666      0.8335971      0.6117073       0.0000000
Si        0.4086555      0.8298312      0.8780456       0.0000000
Si        0.0777854      0.3298368      0.6136687       0.0000000
Si        0.9083748      0.3336005      0.8800027       0.0000000
Si        0.4086589      0.1672974      0.3780495       0.0000000
Si        0.5780696      0.1635335      0.1117159       0.0000000
Si        0.9083777      0.6635376      0.3800113       0.0000000
Si        0.0777887      0.6673031      0.1136725       0.0000000
Si        0.7031502      0.9567823      0.6058901       0.0000000
Si        0.2852608      0.9555282      0.8794419       0.0000000
Si        0.2011850      0.4555300      0.6122707       0.0000000
Si        0.7832909      0.4567826      0.8858315       0.0000000
Si        0.2852594      0.0416042      0.3794478       0.0000000
Si        0.7031536      0.0403516      0.1058869       0.0000000
Si        0.7832940      0.5403520      0.3858281       0.0000000
Si        0.2011836      0.5416061      0.1122765       0.0000000
Si        0.4923319      0.8890324      0.7453876       0.0000000
Si        0.9941111      0.3890416      0.7463281       0.0000000
Si        0.4923333      0.1080924      0.2453906       0.0000000
Si        0.9941125      0.6081021      0.2463311       0.0000000
Si        0.6871909      0.9149264      0.2382052       0.0000000
Si        0.3024606      0.9161509      0.2480061       0.0000000
Si        0.1839878      0.4161449      0.2437142       0.0000000
Si        0.7992519      0.4149232      0.2535054       0.0000000
Si        0.3024566      0.0809896      0.7480044       0.0000000
Si        0.6871922      0.0822112      0.7382127       0.0000000
Si        0.7992532      0.5822076      0.7535126       0.0000000
Si        0.1839838      0.5809832      0.7437125       0.0000000
Si        0.4909344      0.7223021      0.2444622       0.0000000
Si        0.9955097      0.2223065      0.2472503       0.0000000
Si        0.4909348      0.2748279      0.7444683       0.0000000
Si        0.9955100      0.7748320      0.7472560       0.0000000
O         0.5437347      0.9048920      0.3618595       0.0000000
O         0.4564795      0.9160573      0.1359542       0.0000000
O         0.0299477      0.4160789      0.3557696       0.0000000
O         0.9427369      0.4049106      0.1298728       0.0000000
O         0.4564966      0.0810556      0.6359487       0.0000000
O         0.5437077      0.0922238      0.8618461       0.0000000
O         0.9427100      0.5922420      0.6298600       0.0000000
O         0.0299651      0.5810768      0.8557644       0.0000000
O         0.6607310      0.9917517      0.4934464       0.0000000
O         0.3349280      0.9909943      0.9905032       0.0000000
O         0.1515243      0.4909997      0.5012106       0.0000000
O         0.8257242      0.4917510      0.9982743       0.0000000
O         0.3349200      0.0061347      0.4905080       0.0000000
O         0.6607210      0.0053835      0.9934438       0.0000000
O         0.8257146      0.5053824      0.4982715       0.0000000
O         0.1515165      0.5061398      0.0012153       0.0000000
O         0.5512821      0.0524424      0.3331712       0.0000000
O         0.4250409      0.0594604      0.1552560       0.0000000
O         0.0614119      0.5594695      0.3364580       0.0000000
O         0.9351547      0.5524548      0.1585531       0.0000000
O         0.4250326      0.9376650      0.6552606       0.0000000
O         0.5512894      0.9446796      0.8331658       0.0000000
O         0.9351620      0.4446916      0.6585475       0.0000000
O         0.0614037      0.4376737      0.8364625       0.0000000
O         0.6634626      0.9587161      0.3203479       0.0000000
O         0.3207672      0.9523281      0.1566537       0.0000000
O         0.1656640      0.4523175      0.3350557       0.0000000
O         0.8229882      0.4587080      0.1713666       0.0000000
O         0.3207805      0.0448169      0.6566629       0.0000000
O         0.6634555      0.0384262      0.8203508       0.0000000
O         0.8229809      0.5384181      0.6713693       0.0000000
O         0.1656774      0.5448059      0.8350649       0.0000000
O         0.5035189      0.8371709      0.5005113       0.0000000
O         0.4798620      0.8394067      0.9903122       0.0000000
O         0.0065747      0.3394101      0.5014045       0.0000000
O         0.9829231      0.3371853      0.9911966       0.0000000
O         0.4798695      0.1577246      0.4903139       0.0000000
O         0.5035211      0.1599491      0.0005221       0.0000000
O         0.9829252      0.6599625      0.4912072       0.0000000
O         0.0065820      0.6577275      0.0014060       0.0000000
O         0.3877805      0.8910611      0.3391876       0.0000000
O         0.6056331      0.8800771      0.1497535       0.0000000
O         0.8808017      0.3800587      0.3419528       0.0000000
O         0.0986811      0.3910333      0.1525297       0.0000000
O         0.6056426      0.1170758      0.6497653       0.0000000
O         0.3877633      0.1061013      0.8391888       0.0000000
O         0.0986639      0.6060730      0.6525310       0.0000000
O         0.8808112      0.6170568      0.8419642       0.0000000
O         0.4732377      0.7723839      0.3267995       0.0000000
O         0.5046986      0.7747645      0.1616617       0.0000000
O         0.9817733      0.2747752      0.3300633       0.0000000
O         0.0131813      0.2723817      0.1648906       0.0000000
O         0.5046712      0.2223592      0.6616553       0.0000000
O         0.4732635      0.2247527      0.8268282       0.0000000
O         0.0132069      0.7247502      0.6649189       0.0000000
O         0.9817457      0.7223697      0.8300566       0.0000000
O         0.7755945      0.7585181      0.6148916       0.0000000
O         0.2155720      0.7635843      0.8801559       0.0000000
O         0.2708697      0.2635807      0.6115654       0.0000000
O         0.7108625      0.2585237      0.8768288       0.0000000
O         0.2155746      0.2335536      0.3801531       0.0000000
O         0.7755821      0.2386108      0.1148897       0.0000000
O         0.7108505      0.7386154      0.3768267       0.0000000
O         0.2708724      0.7335500      0.1115625       0.0000000
O         0.6280842      0.7558022      0.6250096       0.0000000
O         0.3619895      0.7502855      0.8682670       0.0000000
O         0.1244488      0.2502899      0.6234472       0.0000000
O         0.8583708      0.2557985      0.8667075       0.0000000
O         0.3619953      0.2468443      0.3682706       0.0000000
O         0.6280739      0.2413353      0.1250114       0.0000000
O         0.8583612      0.7413331      0.3667100       0.0000000
O         0.1244546      0.7468488      0.1234510       0.0000000
O         0.7316557      0.6464311      0.6990411       0.0000000
O         0.2475612      0.6499674      0.7876574       0.0000000
O         0.2388641      0.1499606      0.7040443       0.0000000
O         0.7547992      0.1464255      0.7926921       0.0000000
O         0.2475803      0.3471738      0.2876742       0.0000000
O         0.7316449      0.3507088      0.1990264       0.0000000
O         0.7547884      0.8507029      0.2926771       0.0000000
O         0.2388831      0.8471668      0.2040610       0.0000000
O         0.6598913      0.6659843      0.4997005       0.0000000
O         0.3229902      0.6622271      0.9888607       0.0000000
O         0.1634413      0.1622359      0.5028430       0.0000000
O         0.8265671      0.1659943      0.9920295       0.0000000
O         0.3230034      0.3348981      0.4888755       0.0000000
O         0.6598769      0.3311397      0.9996890       0.0000000
O         0.8265522      0.8311508      0.4920178       0.0000000
O         0.1634542      0.8349072      0.0028576       0.0000000
O         0.7842849      0.9093552      0.6189245       0.0000000
O         0.2029392      0.9137507      0.8744416       0.0000000
O         0.2835054      0.4137479      0.6172746       0.0000000
O         0.7021561      0.4093606      0.8728097       0.0000000
O         0.2029389      0.0833864      0.3744434       0.0000000
O         0.7842884      0.0877739      0.1189096       0.0000000
O         0.7021592      0.5877783      0.3727954       0.0000000
O         0.2835051      0.5833836      0.1172767       0.0000000
O         0.9168691      0.8283960      0.6903669       0.0000000
O         0.0719049      0.8306534      0.8046344       0.0000000
O         0.4145360      0.3306484      0.6871050       0.0000000
O         0.5695820      0.3283893      0.8013327       0.0000000
O         0.0719083      0.1664859      0.3046136       0.0000000
O         0.9168624      0.1687453      0.1903858       0.0000000
O         0.5695754      0.6687383      0.3013511       0.0000000
O         0.4145394      0.6664808      0.1870840       0.0000000
O         0.6372909      0.9053329      0.6276087       0.0000000
O         0.3440600      0.8982698      0.8530291       0.0000000
O         0.1423809      0.3982742      0.6386771       0.0000000
O         0.8491378      0.4053267      0.8640976       0.0000000
O         0.3440636      0.0988599      0.3530414       0.0000000
O         0.6373062      0.0918071      0.1276203       0.0000000
O         0.8491520      0.5918025      0.3641083       0.0000000
O         0.1423842      0.5988645      0.1386890       0.0000000
O         0.5425726      0.8367772      0.6983940       0.0000000
O         0.4485409      0.8317663      0.7954054       0.0000000
O         0.0379072      0.3317759      0.6963159       0.0000000
O         0.9438639      0.3367861      0.7933117       0.0000000
O         0.4485372      0.1653582      0.2954025       0.0000000
O         0.5425807      0.1603478      0.1984071       0.0000000
O         0.9438719      0.6603575      0.2933248       0.0000000
O         0.0379034      0.6653680      0.1963129       0.0000000
O         0.7301242      0.0245714      0.6873140       0.0000000
O         0.2584490      0.0211317      0.7947221       0.0000000
O         0.2279985      0.5211323      0.6969936       0.0000000
O         0.7563147      0.5245726      0.8044088       0.0000000
O         0.2584460      0.9760017      0.2947249       0.0000000
O         0.7301296      0.9725615      0.1873092       0.0000000
O         0.7563201      0.4725632      0.3044040       0.0000000
O         0.2279955      0.4760028      0.1969966       0.0000000
space
 1
supercell 1 1 1
species
O  core  O  core
O  shel  O  shel
Si core  Si core
library catlow nodump
output cif ReferenceDataBase/BEB_opt
dump every 1 ReferenceDataBase/BEB.grs
