opti conv nosymm shellonly
name     ReferenceDataBase/COE-11
switch_min rfo gnorm 0.08
cuts 1.1
stepmx opt 0.1
switch_stepmx 0.3 gnorm 0.005
maxcyc 500
cell
 17.41460  17.39060  14.44510  90.00000 112.97380  90.00000
fractional
Si        0.0135406      0.8889232      0.5156568       0.0000000
Si        0.8202112      0.6982390      0.5262946       0.0000000
Si        0.0133317      0.5048446      0.5154123       0.0000000
Si        0.6894835      0.5725098      0.5136544       0.0000000
Si        0.9855460      0.6171699      0.6608871       0.0000000
Si        0.6416431      0.8795024      0.5165206       0.0000000
Si        0.8023045      0.8172032      0.6799957       0.0000000
Si        0.9018062      0.5524863      0.7971008       0.0000000
Si        0.5144029      0.7532122      0.5083458       0.0000000
Si        0.7972263      0.4383503      0.6403667       0.0000000
Si        0.8507470      0.8086421      0.3820108       0.0000000
Si        0.7803383      0.6830442      0.8076172       0.0000000
Si        0.6099228      0.6306753      0.6628174       0.0000000
Si        0.0952836      0.7536749      0.7862507       0.0000000
Si        0.9755712      0.8856000      0.8051091       0.0000000
Si        0.9907814      0.0022896      0.6660762       0.0000000
Si        0.8901454      0.7104240      0.0235801       0.0000000
Si        0.0090576      0.5852798      0.0114844       0.0000000
Si        0.0140495      0.8348129      0.0166410       0.0000000
O         0.6205335      0.5496550      0.4051665       0.0000000
O         0.0304127      0.5595815      0.6110242       0.0000000
O         0.8152000      0.7366957      0.4228559       0.0000000
O         0.4753864      0.6972001      0.4120381       0.0000000
O         0.7215219      0.8683997      0.6199079       0.0000000
O         0.9517816      0.5348225      0.9156670       0.0000000
O         0.8781813      0.8735833      0.7383277       0.0000000
O         0.1485990      0.7228580      0.8990365       0.0000000
O         0.8071025      0.6907642      0.9270332       0.0000000
O         0.9930789      0.8922917      0.9228088       0.0000000
O         0.6681275      0.8900136      0.4222964       0.0000000
O         0.8411880      0.6256896      0.7804186       0.0000000
O         0.8497110      0.4766719      0.7479413       0.0000000
O         0.9878447      0.9270321      0.6000883       0.0000000
O         0.8526653      0.7877693      0.2742804       0.0000000
O         0.5939561      0.9538812      0.5314395       0.0000000
O         0.9322453      0.7838663      0.9953666       0.0000000
O         0.0267606      0.8139706      0.7883914       0.0000000
O         0.5833261      0.8044879      0.4894274       0.0000000
O         0.8252288      0.7661052      0.6025388       0.0000000
O         0.7838217      0.7649428      0.7598091       0.0000000
O         0.9659166      0.5719084      0.7457185       0.0000000
O         0.9538506      0.6392260      0.0516697       0.0000000
O         0.9009507      0.6450648      0.5722234       0.0000000
O         0.5531741      0.5748335      0.6968794       0.0000000
O         0.7368330      0.6485692      0.5021088       0.0000000
O         0.0476587      0.6866413      0.7098711       0.0000000
O         0.6415817      0.5878955      0.5862285       0.0000000
O         0.6867278      0.6523518      0.7643809       0.0000000
O         0.9448419      0.8255912      0.4584625       0.0000000
O         0.0021457      0.9675742      0.7742011       0.0000000
O         0.7540323      0.5032967      0.5573063       0.0000000
O         0.7954944      0.8843986      0.3669302       0.0000000
Si        0.1977998      0.6902224      0.5019420       0.0000000
Si        0.3262868      0.5637904      0.5096115       0.0000000
Si        0.0296833      0.6154982      0.3583274       0.0000000
Si        0.3847770      0.8784397      0.4999322       0.0000000
Si        0.2251606      0.8075281      0.3516547       0.0000000
Si        0.1174302      0.5486672      0.2240297       0.0000000
Si        0.2188418      0.4285219      0.3748533       0.0000000
Si        0.1788672      0.8061506      0.6474368       0.0000000
Si        0.2425259      0.6777133      0.2148070       0.0000000
Si        0.4105164      0.6276697      0.3672084       0.0000000
Si        0.9179923      0.7478020      0.2357929       0.0000000
Si        0.0486192      0.8735743      0.2328658       0.0000000
Si        0.0368324      0.0052013      0.3614359       0.0000000
Si        0.1313567      0.7075770      0.9992651       0.0000000
O         0.3947824      0.5384271      0.6169617       0.0000000
O         0.9966379      0.5524226      0.4144774       0.0000000
O         0.2012739      0.7271979      0.6055214       0.0000000
O         0.5576970      0.7057270      0.6108035       0.0000000
O         0.3028005      0.8652616      0.3990126       0.0000000
O         0.0644714      0.5326707      0.1056723       0.0000000
O         0.1429143      0.8587235      0.3082665       0.0000000
O         0.8667817      0.7264271      0.1190210       0.0000000
O         0.2157460      0.6867908      0.0948525       0.0000000
O         0.0383038      0.8837463      0.1182291       0.0000000
O         0.3638589      0.8907260      0.5976276       0.0000000
O         0.1842186      0.6165650      0.2402118       0.0000000
O         0.1626563      0.4697971      0.2710747       0.0000000
O         0.0197661      0.9562657      0.4447841       0.0000000
O         0.1607371      0.7914237      0.7467817       0.0000000
O         0.4295780      0.9532099      0.4797347       0.0000000
O         0.0929572      0.7819226      0.0305863       0.0000000
O         0.9945494      0.8027966      0.2449024       0.0000000
O         0.4434054      0.8039905      0.5225989       0.0000000
O         0.2258092      0.7534114      0.4413006       0.0000000
O         0.2334075      0.7586849      0.2621965       0.0000000
O         0.0569721      0.5736985      0.2776559       0.0000000
O         0.0666981      0.6374097      0.9731150       0.0000000
O         0.1050941      0.6621563      0.4387706       0.0000000
O         0.4553382      0.5541114      0.3448814       0.0000000
O         0.2601826      0.6182838      0.5289834       0.0000000
O         0.9538760      0.6723664      0.3017731       0.0000000
O         0.3716733      0.6085984      0.4482529       0.0000000
O         0.3382601      0.6510940      0.2615239       0.0000000
O         0.1002361      0.8443522      0.5598766       0.0000000
O         0.0202334      0.9538414      0.2635495       0.0000000
O         0.2811032      0.4886552      0.4507078       0.0000000
O         0.2565064      0.8635206      0.6800273       0.0000000
Si        0.5117523      0.3889232      0.5081732       0.0000000
Si        0.3274931      0.1902224      0.5218880       0.0000000
Si        0.5119612      0.0048446      0.5084177       0.0000000
Si        0.1990061      0.0637904      0.5142186       0.0000000
Si        0.4956096      0.1154982      0.6655026       0.0000000
Si        0.1405160      0.3784398      0.5238978       0.0000000
Si        0.3001324      0.3075282      0.6721753       0.0000000
Si        0.4078628      0.0486672      0.7998003       0.0000000
Si        0.0108901      0.2532122      0.5154843       0.0000000
Si        0.3064511      0.9285219      0.6489767       0.0000000
Si        0.3464258      0.3061506      0.3763932       0.0000000
Si        0.2827671      0.1777133      0.8090231       0.0000000
Si        0.1147765      0.1276697      0.6566217       0.0000000
Si        0.6073006      0.2478020      0.7880371       0.0000000
Si        0.4766737      0.3735742      0.7909642       0.0000000
Si        0.4884605      0.5052013      0.6623942       0.0000000
Si        0.3939363      0.2075770      0.0245649       0.0000000
Si        0.5162353      0.0852798      0.0123456       0.0000000
Si        0.5112435      0.3348129      0.0071890       0.0000000
O         0.1305106      0.0384271      0.4068684       0.0000000
O         0.5286551      0.0524226      0.6093526       0.0000000
O         0.3240190      0.2271979      0.4183087       0.0000000
O         0.9675959      0.2057270      0.4130266       0.0000000
O         0.2224925      0.3652616      0.6248175       0.0000000
O         0.4608215      0.0326707      0.9181578       0.0000000
O         0.3823787      0.3587235      0.7155635       0.0000000
O         0.6585112      0.2264271      0.9048091       0.0000000
O         0.3095469      0.1867908      0.9289775       0.0000000
O         0.4869891      0.3837463      0.9056009       0.0000000
O         0.1614341      0.3907260      0.4262025       0.0000000
O         0.3410743      0.1165650      0.7836182       0.0000000
O         0.3626366      0.9697971      0.7527554       0.0000000
O         0.5055268      0.4562657      0.5790459       0.0000000
O         0.3645558      0.2914237      0.2770483       0.0000000
O         0.0957149      0.4532099      0.5440953       0.0000000
O         0.4323357      0.2819226      0.9932438       0.0000000
O         0.5307435      0.3027966      0.7789277       0.0000000
O         0.0818876      0.3039905      0.5012311       0.0000000
O         0.2994837      0.2534114      0.5825295       0.0000000
O         0.2918854      0.2586848      0.7616335       0.0000000
O         0.4683209      0.0736985      0.7461742       0.0000000
O         0.4585948      0.1374098      0.0507150       0.0000000
O         0.4201988      0.1621563      0.5850595       0.0000000
O         0.0699547      0.0541114      0.6789486       0.0000000
O         0.2651103      0.1182838      0.4948467       0.0000000
O         0.5714170      0.1723664      0.7220569       0.0000000
O         0.1536196      0.1085984      0.5755772       0.0000000
O         0.1870328      0.1510939      0.7623061       0.0000000
O         0.4250568      0.3443522      0.4639535       0.0000000
O         0.5050595      0.4538414      0.7602806       0.0000000
O         0.2441897      0.9886553      0.5731223       0.0000000
O         0.2687865      0.3635205      0.3438028       0.0000000
Si        0.7050817      0.1982390      0.4975354       0.0000000
Si        0.8358094      0.0725098      0.5101756       0.0000000
Si        0.5397469      0.1171699      0.3629430       0.0000000
Si        0.8836498      0.3795023      0.5073095       0.0000000
Si        0.7229884      0.3172033      0.3438343       0.0000000
Si        0.6234867      0.0524863      0.2267293       0.0000000
Si        0.7280667      0.9383503      0.3834633       0.0000000
Si        0.6745459      0.3086421      0.6418193       0.0000000
Si        0.7449546      0.1830442      0.2162129       0.0000000
Si        0.9153701      0.1306753      0.3610126       0.0000000
Si        0.4300093      0.2536749      0.2375793       0.0000000
Si        0.5497218      0.3856000      0.2187210       0.0000000
Si        0.5345115      0.5022897      0.3577538       0.0000000
Si        0.6351475      0.2104240      0.0002499       0.0000000
O         0.9047595      0.0496550      0.6186635       0.0000000
O         0.4948803      0.0595814      0.4128058       0.0000000
O         0.7100930      0.2366957      0.6009741       0.0000000
O         0.0499065      0.1972001      0.6117920       0.0000000
O         0.8037711      0.3683997      0.4039221       0.0000000
O         0.5735113      0.0348224      0.1081631       0.0000000
O         0.6471117      0.3735833      0.2855023       0.0000000
O         0.3766939      0.2228580      0.1247936       0.0000000
O         0.7181904      0.1907642      0.0967968       0.0000000
O         0.5322140      0.3922918      0.1010212       0.0000000
O         0.8571654      0.3900136      0.6015337       0.0000000
O         0.6841049      0.1256897      0.2434115       0.0000000
O         0.6755819      0.9766719      0.2758887       0.0000000
O         0.5374482      0.4270321      0.4237418       0.0000000
O         0.6726276      0.2877693      0.7495496       0.0000000
O         0.9313369      0.4538812      0.4923905       0.0000000
O         0.5930476      0.2838663      0.0284634       0.0000000
O         0.4985323      0.3139705      0.2354386       0.0000000
O         0.9419668      0.3044880      0.5344026       0.0000000
O         0.7000641      0.2661051      0.4212913       0.0000000
O         0.7414712      0.2649428      0.2640209       0.0000000
O         0.5593764      0.0719084      0.2781115       0.0000000
O         0.5714423      0.1392260      0.9721603       0.0000000
O         0.6243423      0.1450648      0.4516067       0.0000000
O         0.9721188      0.0748335      0.3269506       0.0000000
O         0.7884600      0.1485692      0.5217212       0.0000000
O         0.4776343      0.1866413      0.3139589       0.0000000
O         0.8837112      0.0878955      0.4376015       0.0000000
O         0.8385652      0.1523518      0.2594491       0.0000000
O         0.5804511      0.3255912      0.5653676       0.0000000
O         0.5231473      0.4675742      0.2496289       0.0000000
O         0.7712606      0.0032967      0.4665237       0.0000000
O         0.7297986      0.3843986      0.6568998       0.0000000
space
 1
supercell 1 1 1
species
O  core  O  core
O  shel  O  shel
Si core  Si core
library catlow nodump
output cif ReferenceDataBase/COE-11_opt
dump every 1 ReferenceDataBase/COE-11.grs
