opti conp nosymm
name     ReferenceDataBase/ECNU-23a
switch_min rfo gnorm 0.08
cuts 1.1
stepmx opt 0.1
switch_stepmx 0.3 gnorm 0.005
maxcyc 500
cell
 21.69050  13.53750  19.94530  89.65870  90.02510  89.55100
fractional
O         0.7590064      0.9839903      0.0694694       0.0000000
O         0.2394970      0.9821392      0.0765303       0.0000000
O         0.2733589      0.0057011      0.4515631       0.0000000
O         0.7211578      0.0026830      0.4452961       0.0000000
O         0.2582884      0.4805043      0.0760897       0.0000000
O         0.7366180      0.5206777      0.0677550       0.0000000
O         0.7713643      0.4896740      0.4435656       0.0000000
O         0.2237104      0.5060068      0.4512994       0.0000000
O         0.6767793      0.6082221      0.2494423       0.0000000
O         0.3278039      0.3995088      0.2368359       0.0000000
O         0.3122998      0.5915722      0.2341690       0.0000000
O         0.6772398      0.4201824      0.2135308       0.0000000
O         0.1797479      0.1084375      0.2264408       0.0000000
O         0.8310673      0.9075392      0.2312396       0.0000000
O         0.8162721      0.0998767      0.2395943       0.0000000
O         0.1734585      0.9179896      0.2475025       0.0000000
O         0.6487118      0.9226573      0.1071920       0.0000000
O         0.3230289      0.1083232      0.1107886       0.0000000
O         0.3170056      0.8933788      0.3567454       0.0000000
O         0.6803903      0.1207093      0.3486359       0.0000000
O         0.1443314      0.4323179      0.1080827       0.0000000
O         0.8492939      0.5791723      0.0977903       0.0000000
O         0.8509268      0.4173484      0.3621233       0.0000000
O         0.1738898      0.6034657      0.3512464       0.0000000
O         0.5585025      0.8031253      0.1258091       0.0000000
O         0.4428478      0.1362755      0.1043574       0.0000000
O         0.4339371      0.8399441      0.3524938       0.0000000
O         0.5605968      0.1514469      0.3390492       0.0000000
O         0.0461011      0.3346859      0.0974822       0.0000000
O         0.9462119      0.6827916      0.1224498       0.0000000
O         0.9444739      0.3080536      0.3335074       0.0000000
O         0.0557491      0.6435784      0.3535033       0.0000000
O         0.6408988      0.7687464      0.0296631       0.0000000
O         0.3668567      0.2328186      0.0247766       0.0000000
O         0.3477255      0.7239380      0.4055712       0.0000000
O         0.6362317      0.2808767      0.3988286       0.0000000
O         0.1435176      0.2826537      0.0255977       0.0000000
O         0.8679740      0.7388945      0.0273417       0.0000000
O         0.8477926      0.2292570      0.3958014       0.0000000
O         0.1380057      0.7653741      0.4081733       0.0000000
O         0.3692225      0.2706875      0.1540749       0.0000000
O         0.6716848      0.7412666      0.1527587       0.0000000
O         0.6336353      0.2613092      0.2713721       0.0000000
O         0.3565286      0.7555911      0.2763896       0.0000000
O         0.8358199      0.7580867      0.1492710       0.0000000
O         0.1390681      0.2486042      0.1549835       0.0000000
O         0.1280835      0.7471299      0.2795410       0.0000000
O         0.8409795      0.2843238      0.2698816       0.0000000
O         0.4932454      0.8491704      0.2344672       0.0000000
O         0.5055308      0.1252188      0.2199747       0.0000000
O         0.9981681      0.3532772      0.2189350       0.0000000
O         0.9997808      0.6270961      0.2352678       0.0000000
O         0.2759869      0.9928534      0.2020129       0.0000000
O         0.7252949      0.9861425      0.1961043       0.0000000
O         0.7585908      0.9811969      0.3220774       0.0000000
O         0.2402680      0.0316114      0.3257138       0.0000000
O         0.7736729      0.5333119      0.1933271       0.0000000
O         0.2207442      0.4769470      0.2014668       0.0000000
O         0.2588919      0.4779171      0.3268892       0.0000000
O         0.7414884      0.4724021      0.3159729       0.0000000
O         0.3212701      0.5972847      0.4967150       0.0000000
O         0.6703223      0.4076778      0.4882607       0.0000000
O         0.6747923      0.6022131      0.4723990       0.0000000
O         0.3251029      0.4039796      0.4814853       0.0000000
O         0.8182310      0.1008145      0.4851392       0.0000000
O         0.1723910      0.9069636      0.4830660       0.0000000
O         0.1762514      0.1011729      0.4963760       0.0000000
O         0.8253770      0.9073908      0.4765778       0.0000000
O         0.3503680      0.9208167      0.1154484       0.0000000
O         0.6778721      0.1096984      0.1122006       0.0000000
O         0.6442350      0.9383607      0.3564615       0.0000000
O         0.3517742      0.0777602      0.3687797       0.0000000
O         0.8157921      0.3957560      0.1159863       0.0000000
O         0.1811940      0.6143590      0.1207755       0.0000000
O         0.1496548      0.4164793      0.3718041       0.0000000
O         0.8199526      0.6033665      0.3510747       0.0000000
O         0.4425890      0.8048099      0.1194240       0.0000000
O         0.5588287      0.1394255      0.1021087       0.0000000
O         0.5490787      0.8309642      0.3516848       0.0000000
O         0.4451859      0.1792100      0.3284551       0.0000000
O         0.9319382      0.3426696      0.1074981       0.0000000
O         0.0627112      0.6573030      0.1239665       0.0000000
O         0.0608285      0.3054063      0.3276266       0.0000000
O         0.9396889      0.6333880      0.3526192       0.0000000
O         0.3308440      0.7343886      0.1503503       0.0000000
O         0.6347864      0.2802957      0.1436446       0.0000000
O         0.6396869      0.7887684      0.2738848       0.0000000
O         0.3368816      0.2114459      0.2757134       0.0000000
O         0.8447154      0.2197439      0.1466137       0.0000000
O         0.1482234      0.7890385      0.1559199       0.0000000
O         0.1726472      0.2863307      0.2804359       0.0000000
O         0.8716987      0.7359087      0.2736138       0.0000000
O         0.6347395      0.2260675      0.0194614       0.0000000
O         0.3556823      0.7774666      0.0283004       0.0000000
O         0.3556760      0.2663439      0.3988391       0.0000000
O         0.6540211      0.7551872      0.4016213       0.0000000
O         0.1340311      0.7362904      0.0330073       0.0000000
O         0.8527346      0.2772874      0.0209078       0.0000000
O         0.8580041      0.7642220      0.4021966       0.0000000
O         0.1502404      0.2277892      0.4023911       0.0000000
O         0.5021671      0.9757856      0.1346104       0.0000000
O         0.4917736      0.9985350      0.3183979       0.0000000
O         0.9924262      0.5029122      0.1343108       0.0000000
O         0.0037726      0.4775159      0.3197721       0.0000000
O         0.7438879      0.2555872      0.4632364       0.0000000
O         0.2445890      0.7489902      0.4765952       0.0000000
O         0.2534615      0.2483665      0.4720764       0.0000000
O         0.7540902      0.7502843      0.4774583       0.0000000
O         0.2537587      0.2579265      0.1891684       0.0000000
O         0.7549592      0.7585982      0.2476933       0.0000000
O         0.7388389      0.2473847      0.2090999       0.0000000
O         0.2419141      0.7542129      0.2393681       0.0000000
Si        0.7129933      0.5042578      0.4925168       0.0000000
Si        0.2823642      0.4970218      0.0007246       0.0000000
Si        0.2150415      0.9995204      0.0012731       0.0000000
Si        0.7811027      0.9995841      0.4934428       0.0000000
Si        0.7171451      0.5085290      0.2435517       0.0000000
Si        0.2798432      0.4886786      0.2500141       0.0000000
Si        0.2174943      0.0124631      0.2502306       0.0000000
Si        0.7828924      0.9955582      0.2466078       0.0000000
Si        0.6822956      0.7205272      0.4717694       0.0000000
Si        0.3238054      0.2864266      0.4701146       0.0000000
Si        0.3154784      0.7125948      0.4776373       0.0000000
Si        0.6731802      0.2924943      0.4680287       0.0000000
Si        0.1821522      0.2155182      0.4747606       0.0000000
Si        0.8243700      0.7888875      0.4715650       0.0000000
Si        0.8139831      0.2163785      0.4669826       0.0000000
Si        0.1743402      0.7884817      0.4759084       0.0000000
Si        0.6295426      0.8086117      0.1040482       0.0000000
Si        0.3765593      0.1864133      0.0978127       0.0000000
Si        0.3642628      0.8035338      0.3486175       0.0000000
Si        0.6268629      0.2023526      0.3397522       0.0000000
Si        0.1195228      0.3227746      0.0959947       0.0000000
Si        0.8753868      0.6896662      0.0998415       0.0000000
Si        0.8709818      0.3078405      0.3409703       0.0000000
Si        0.1233801      0.6895366      0.3492825       0.0000000
Si        0.3087946      0.7090326      0.2249764       0.0000000
Si        0.6732966      0.3019546      0.2104890       0.0000000
Si        0.6864314      0.7234534      0.2307910       0.0000000
Si        0.3218243      0.2856146      0.2151265       0.0000000
Si        0.8089012      0.2131718      0.2171588       0.0000000
Si        0.1747216      0.8023351      0.2304014       0.0000000
Si        0.1864539      0.2251637      0.2139688       0.0000000
Si        0.8231505      0.7894002      0.2249186       0.0000000
Si        0.3701503      0.8081234      0.1040156       0.0000000
Si        0.6250462      0.1882556      0.0945043       0.0000000
Si        0.6226933      0.8265285      0.3475133       0.0000000
Si        0.3727309      0.1849535      0.3435248       0.0000000
Si        0.8627988      0.3090680      0.0970715       0.0000000
Si        0.1297771      0.6982037      0.1085653       0.0000000
Si        0.1326827      0.3082076      0.3458117       0.0000000
Si        0.8730417      0.6839418      0.3459822       0.0000000
Si        0.4991423      0.8608657      0.1545775       0.0000000
Si        0.5021684      0.0933705      0.1424136       0.0000000
Si        0.4921426      0.8807849      0.3120445       0.0000000
Si        0.5009505      0.1124696      0.3002362       0.0000000
Si        0.9924223      0.3850501      0.1414211       0.0000000
Si        0.0002857      0.6161826      0.1551163       0.0000000
Si        0.0016001      0.3634954      0.2990417       0.0000000
Si        0.9996964      0.5952041      0.3130809       0.0000000
Si        0.7025436      0.9997500      0.1202108       0.0000000
Si        0.2972710      0.0010402      0.1250973       0.0000000
Si        0.2960394      0.0022159      0.3752773       0.0000000
Si        0.7006375      0.0105172      0.3680506       0.0000000
Si        0.2011080      0.5010428      0.1254015       0.0000000
Si        0.7940291      0.5077648      0.1176605       0.0000000
Si        0.7961166      0.4956463      0.3681321       0.0000000
Si        0.2010692      0.5000002      0.3750002       0.0000000
O         0.7590038      0.9840123      0.5694707       0.0000000
O         0.2394940      0.9821279      0.5765293       0.0000000
O         0.2733599      0.0056980      0.9515630       0.0000000
O         0.7211583      0.0026865      0.9452966       0.0000000
O         0.2582875      0.4805024      0.5760890       0.0000000
O         0.7366189      0.5206847      0.5677539       0.0000000
O         0.7713644      0.4896851      0.9435659       0.0000000
O         0.2237110      0.5059983      0.9512996       0.0000000
O         0.6767808      0.6082252      0.7494441       0.0000000
O         0.3278036      0.3995089      0.7368346       0.0000000
O         0.3122999      0.5915725      0.7341666       0.0000000
O         0.6772355      0.4201863      0.7135335       0.0000000
O         0.1797462      0.1084374      0.7264423       0.0000000
O         0.8310699      0.9075402      0.7312425       0.0000000
O         0.8162652      0.0998765      0.7395900       0.0000000
O         0.1734579      0.9179889      0.7475039       0.0000000
O         0.6487125      0.9226513      0.6071831       0.0000000
O         0.3230169      0.1083267      0.6107818       0.0000000
O         0.3170060      0.8933789      0.8567432       0.0000000
O         0.6803902      0.1207104      0.8486354       0.0000000
O         0.1443305      0.4323172      0.6080831       0.0000000
O         0.8492954      0.5791708      0.5977948       0.0000000
O         0.8509242      0.4173445      0.8621264       0.0000000
O         0.1738938      0.6034700      0.8512512       0.0000000
O         0.5585042      0.8031184      0.6258115       0.0000000
O         0.4428367      0.1362552      0.6043588       0.0000000
O         0.4339376      0.8399440      0.8524935       0.0000000
O         0.5605964      0.1514459      0.8390471       0.0000000
O         0.0461001      0.3346846      0.5974834       0.0000000
O         0.9462129      0.6827912      0.6224511       0.0000000
O         0.9444712      0.3080517      0.8335082       0.0000000
O         0.0557520      0.6435744      0.8535045       0.0000000
O         0.6408973      0.7687329      0.5296637       0.0000000
O         0.3668556      0.2328223      0.5247768       0.0000000
O         0.3477259      0.7239386      0.9055710       0.0000000
O         0.6362304      0.2808780      0.8988257       0.0000000
O         0.1435162      0.2826543      0.5255969       0.0000000
O         0.8679739      0.7388893      0.5273417       0.0000000
O         0.8477890      0.2292541      0.8958033       0.0000000
O         0.1380057      0.7653781      0.9081737       0.0000000
O         0.3692209      0.2706824      0.6540757       0.0000000
O         0.6716884      0.7412671      0.6527593       0.0000000
O         0.6336343      0.2613056      0.7713689       0.0000000
O         0.3565298      0.7555890      0.7763895       0.0000000
O         0.8358216      0.7580894      0.6492708       0.0000000
O         0.1390678      0.2486022      0.6549821       0.0000000
O         0.1280852      0.7471275      0.7795414       0.0000000
O         0.8409762      0.2843202      0.7698837       0.0000000
O         0.4932436      0.8491709      0.7344658       0.0000000
O         0.5055285      0.1252194      0.7199730       0.0000000
O         0.9981668      0.3532751      0.7189363       0.0000000
O         0.9997832      0.6270961      0.7352690       0.0000000
O         0.2759848      0.9928541      0.7020122       0.0000000
O         0.7252937      0.9861218      0.6961051       0.0000000
O         0.7585903      0.9811968      0.8220780       0.0000000
O         0.2402681      0.0316117      0.8257141       0.0000000
O         0.7736723      0.5333071      0.6933275       0.0000000
O         0.2207437      0.4769478      0.7014663       0.0000000
O         0.2588923      0.4779180      0.8268883       0.0000000
O         0.7414874      0.4724019      0.8159739       0.0000000
O         0.3212699      0.5972828      0.9967125       0.0000000
O         0.6703209      0.4076839      0.9882545       0.0000000
O         0.6747914      0.6022195      0.9724047       0.0000000
O         0.3251049      0.4039778      0.9814882       0.0000000
O         0.8182290      0.1008167      0.9851459       0.0000000
O         0.1723925      0.9069636      0.9830710       0.0000000
O         0.1762520      0.1011730      0.9963735       0.0000000
O         0.8253795      0.9073933      0.9765704       0.0000000
O         0.3503681      0.9208210      0.6154493       0.0000000
O         0.6778579      0.1096939      0.6122252       0.0000000
O         0.6442342      0.9383625      0.8564643       0.0000000
O         0.3517743      0.0777603      0.8687801       0.0000000
O         0.8157892      0.3957545      0.6159807       0.0000000
O         0.1811942      0.6143588      0.6207737       0.0000000
O         0.1496531      0.4164833      0.8718005       0.0000000
O         0.8199556      0.6033635      0.8510690       0.0000000
O         0.4425903      0.8048165      0.6194203       0.0000000
O         0.5588160      0.1394498      0.6021022       0.0000000
O         0.5490789      0.8309641      0.8516825       0.0000000
O         0.4451855      0.1792102      0.8284543       0.0000000
O         0.9319369      0.3426739      0.6074992       0.0000000
O         0.0627117      0.6573032      0.6239666       0.0000000
O         0.0608264      0.3054053      0.8276292       0.0000000
O         0.9396915      0.6333889      0.8526204       0.0000000
O         0.3308466      0.7343912      0.6503499       0.0000000
O         0.6347836      0.2803054      0.6436414       0.0000000
O         0.6396898      0.7887730      0.7738847       0.0000000
O         0.3368801      0.2114466      0.7757148       0.0000000
O         0.8447160      0.2197454      0.6466145       0.0000000
O         0.1482237      0.7890382      0.6559204       0.0000000
O         0.1726440      0.2863320      0.7804348       0.0000000
O         0.8717024      0.7359084      0.7736127       0.0000000
O         0.6347493      0.2260515      0.5194615       0.0000000
O         0.3556817      0.7774710      0.5282998       0.0000000
O         0.3556769      0.2663441      0.8988398       0.0000000
O         0.6540206      0.7551875      0.9016212       0.0000000
O         0.1340305      0.7362930      0.5330076       0.0000000
O         0.8527382      0.2772820      0.5209076       0.0000000
O         0.8580047      0.7642188      0.9021956       0.0000000
O         0.1502415      0.2277931      0.9023911       0.0000000
O         0.5021788      0.9757851      0.6346092       0.0000000
O         0.4917730      0.9985350      0.8183963       0.0000000
O         0.9924278      0.5029120      0.6343128       0.0000000
O         0.0037712      0.4775144      0.8197728       0.0000000
O         0.7438838      0.2555871      0.9632391       0.0000000
O         0.2445894      0.7489898      0.9765950       0.0000000
O         0.2534628      0.2483656      0.9720771       0.0000000
O         0.7540907      0.7502886      0.9774569       0.0000000
O         0.2537573      0.2579266      0.6891698       0.0000000
O         0.7549625      0.7585978      0.7476948       0.0000000
O         0.7388378      0.2473931      0.7090946       0.0000000
O         0.2419155      0.7542146      0.7393667       0.0000000
Si        0.7129925      0.5042621      0.9925167       0.0000000
Si        0.2823636      0.4970240      0.5007243       0.0000000
Si        0.2150398      0.9995189      0.5012722       0.0000000
Si        0.7811038      0.9995822      0.9934425       0.0000000
Si        0.7171442      0.5085299      0.7435529       0.0000000
Si        0.2798432      0.4886793      0.7500129       0.0000000
Si        0.2174932      0.0124632      0.7502313       0.0000000
Si        0.7828908      0.9955547      0.7466078       0.0000000
Si        0.6822957      0.7205331      0.9717703       0.0000000
Si        0.3238067      0.2864254      0.9701156       0.0000000
Si        0.3154786      0.7125934      0.9776368       0.0000000
Si        0.6731766      0.2924989      0.9680271       0.0000000
Si        0.1821531      0.2155190      0.9747603       0.0000000
Si        0.8243710      0.7888893      0.9715629       0.0000000
Si        0.8139794      0.2163794      0.9669851       0.0000000
Si        0.1743408      0.7884822      0.9759094       0.0000000
Si        0.6295436      0.8086053      0.6040474       0.0000000
Si        0.3765531      0.1864097      0.5978118       0.0000000
Si        0.3642633      0.8035335      0.8486170       0.0000000
Si        0.6268623      0.2023524      0.8397502       0.0000000
Si        0.1195219      0.3227740      0.5959945       0.0000000
Si        0.8753878      0.6896651      0.5998428       0.0000000
Si        0.8709789      0.3078373      0.8409720       0.0000000
Si        0.1233818      0.6895372      0.8492840       0.0000000
Si        0.3087959      0.7090332      0.7249753       0.0000000
Si        0.6732942      0.3019586      0.7104870       0.0000000
Si        0.6864342      0.7234560      0.7307920       0.0000000
Si        0.3218231      0.2856140      0.7151272       0.0000000
Si        0.8088984      0.2131730      0.7171575       0.0000000
Si        0.1747223      0.8023347      0.7304017       0.0000000
Si        0.1864524      0.2251633      0.7139689       0.0000000
Si        0.8231533      0.7894012      0.7249191       0.0000000
Si        0.3701511      0.8081278      0.6040148       0.0000000
Si        0.6250415      0.1882582      0.5945070       0.0000000
Si        0.6226937      0.8265301      0.8475133       0.0000000
Si        0.3727307      0.1849537      0.8435252       0.0000000
Si        0.8627987      0.3090679      0.5970708       0.0000000
Si        0.1297774      0.6982043      0.6085652       0.0000000
Si        0.1326812      0.3082096      0.8458115       0.0000000
Si        0.8730439      0.6839404      0.8459809       0.0000000
Si        0.4991449      0.8608657      0.6545764       0.0000000
Si        0.5021650      0.0933710      0.6424119       0.0000000
Si        0.4921425      0.8807850      0.8120432       0.0000000
Si        0.5009497      0.1124696      0.8002347       0.0000000
Si        0.9924219      0.3850500      0.6414226       0.0000000
Si        0.0002869      0.6161825      0.6551175       0.0000000
Si        0.0015979      0.3634936      0.7990431       0.0000000
Si        0.9996983      0.5952027      0.8130819       0.0000000
Si        0.7025397      0.9997479      0.6202137       0.0000000
Si        0.2972671      0.0010391      0.6250959       0.0000000
Si        0.2960398      0.0022153      0.8752770       0.0000000
Si        0.7006373      0.0105186      0.8680514       0.0000000
Si        0.2011074      0.5010424      0.6254008       0.0000000
Si        0.7940288      0.5077644      0.6176606       0.0000000
Si        0.7961164      0.4956471      0.8681320       0.0000000
Si        0.2010700      0.5000000      0.8750000       0.0000000
space
 1
supercell 1 1 1
species
O  core  O  core
O  shel  O  shel
Si core  Si core
library catlow nodump
output cif ReferenceDataBase/ECNU-23a_opt
dump every 1 ReferenceDataBase/ECNU-23a.grs
