opti conp nosymm
name     ReferenceDataBase/ECNU-13a
switch_min rfo gnorm 0.08
cuts 1.1
stepmx opt 0.1
switch_stepmx 0.3 gnorm 0.005
maxcyc 500
cell
 21.89150  12.53490  11.41330  89.97700  90.11690  90.51910
fractional
O         0.0625232      0.1912907      0.3099469       0.0000000
O         0.3661700      0.3318185      0.2734897       0.0000000
O         0.2560478      0.3812748      0.3354420       0.0000000
O         0.1494894      0.3229783      0.2571947       0.0000000
O         0.3357784      0.1347622      0.3130812       0.0000000
O         0.3320511      0.2073928      0.0983753       0.0000000
O         0.4391309      0.1846460      0.2092615       0.0000000
O         0.1151605      0.1839358      0.1021065       0.0000000
O         0.1750742      0.1199713      0.2857243       0.0000000
Si        0.3267402      0.4040239      0.3604287       0.0000000
Si        0.1843500      0.3993694      0.3473016       0.0000000
Si        0.3681800      0.2130393      0.2207641       0.0000000
Si        0.1248481      0.2033794      0.2399837       0.0000000
Si        0.0025992      0.1367163      0.3618261       0.0000000
O         0.3419134      0.3776916      0.4956622       0.0000000
O         0.1631030      0.3719443      0.4787624       0.0000000
O         0.2571968      0.9796044      0.3400256       0.0000000
Si        0.3278407      0.0136602      0.3537470       0.0000000
Si        0.1874839      0.0131872      0.3581585       0.0000000
O         0.3428870      0.5268875      0.3330141       0.0000000
O         0.1675451      0.5203554      0.3158291       0.0000000
O         0.1396127      0.0186737      0.9702612       0.0000000
O         0.3084874      0.0175626      0.0121760       0.0000000
O         0.2242022      0.1678520      0.0078185       0.0000000
Si        0.1525741      0.1431032      0.9900849       0.0000000
Si        0.2957120      0.1435076      0.9984078       0.0000000
O         0.3501295      0.0030009      0.4860542       0.0000000
O         0.1713591      0.0351635      0.4929613       0.0000000
O         0.4696911      0.1300154      0.0000604       0.0000000
O         0.4998558      0.0076610      0.1766256       0.0000000
Si        0.4914104      0.1291091      0.1339950       0.0000000
O         0.0098569      0.0105515      0.3503554       0.0000000
O         0.9943869      0.8488963      0.4946186       0.0000000
O         0.9278021      0.8664542      0.3023819       0.0000000
O         0.6336525      0.6909511      0.2711380       0.0000000
O         0.7413362      0.6464649      0.3517046       0.0000000
O         0.8540104      0.7004961      0.2991275       0.0000000
O         0.6443294      0.8894025      0.3304868       0.0000000
O         0.6702839      0.8352916      0.1172075       0.0000000
O         0.5554450      0.8239191      0.1939863       0.0000000
O         0.8645838      0.8145302      0.1122465       0.0000000
O         0.8109896      0.8979264      0.2931990       0.0000000
Si        0.6699507      0.6195531      0.3637846       0.0000000
Si        0.8119296      0.6241782      0.3774955       0.0000000
Si        0.6260592      0.8111150      0.2253729       0.0000000
Si        0.8651194      0.8195408      0.2527351       0.0000000
Si        0.9931768      0.8864729      0.3597199       0.0000000
O         0.6477515      0.6424813      0.4959663       0.0000000
O         0.8265612      0.6482289      0.5128665       0.0000000
O         0.7291498      0.0371088      0.3518697       0.0000000
Si        0.6582629      0.0086806      0.3711654       0.0000000
Si        0.7992495      0.0058995      0.3648299       0.0000000
O         0.6566331      0.4968769      0.3314601       0.0000000
O         0.8280395      0.5027226      0.3464944       0.0000000
O         0.8500515      0.0014989      0.0213683       0.0000000
O         0.6811769      0.0026097      0.9794519       0.0000000
O         0.7654621      0.8523204      0.9838105       0.0000000
Si        0.8370902      0.8770693      0.0015440       0.0000000
Si        0.6939523      0.8766648      0.9932209       0.0000000
O         0.6395344      0.0171710      0.5055749       0.0000000
O         0.8183057      0.9850094      0.4986673       0.0000000
O         0.5199735      0.8901567      0.9915683       0.0000000
Si        0.5029342      0.8873506      0.1277685       0.0000000
O         0.9952772      0.1712757      0.4970100       0.0000000
O         0.9473761      0.2000676      0.7059014       0.0000000
O         0.6238708      0.2952166      0.7074211       0.0000000
O         0.7360239      0.3525237      0.6617048       0.0000000
O         0.8466454      0.3064996      0.7307694       0.0000000
O         0.6211681      0.0840692      0.7148696       0.0000000
O         0.6668011      0.1939248      0.8908023       0.0000000
O         0.5496944      0.1960023      0.8446850       0.0000000
O         0.8774418      0.1661896      0.8885425       0.0000000
O         0.8430947      0.1035442      0.6777962       0.0000000
Si        0.6656323      0.3724910      0.6302475       0.0000000
Si        0.8072636      0.3777348      0.6434194       0.0000000
Si        0.6164832      0.1922131      0.7886493       0.0000000
Si        0.8780385      0.1932328      0.7513765       0.0000000
Si        0.9964877      0.1336991      0.6319088       0.0000000
O         0.6538576      0.3468075      0.4939754       0.0000000
O         0.8252589      0.3533665      0.5094746       0.0000000
O         0.7324675      0.0405682      0.6516022       0.0000000
Si        0.6618236      0.0065120      0.6378819       0.0000000
Si        0.8021804      0.0069853      0.6334700       0.0000000
O         0.6467769      0.4932846      0.6586134       0.0000000
O         0.8221201      0.4998170      0.6757991       0.0000000
O         0.7695844      0.1513759      0.9874575       0.0000000
Si        0.8408490      0.1264519      0.0020944       0.0000000
Si        0.6980111      0.1274484      0.9941005       0.0000000
O         0.4898089      0.0125112      0.8150030       0.0000000
Si        0.4867302      0.1328216      0.8638600       0.0000000
O         0.9798082      0.0096204      0.6412738       0.0000000
O         0.0424825      0.8410465      0.7068439       0.0000000
O         0.3575263      0.7177825      0.7181526       0.0000000
O         0.2466717      0.6678666      0.6498358       0.0000000
O         0.1329766      0.7103531      0.6980128       0.0000000
O         0.3712158      0.9260784      0.6894320       0.0000000
O         0.3160865      0.8509652      0.8743928       0.0000000
O         0.4352631      0.8253538      0.8431512       0.0000000
O         0.1204817      0.8318901      0.8792316       0.0000000
O         0.1521781      0.9164711      0.6763158       0.0000000
Si        0.3180126      0.6454613      0.6309454       0.0000000
Si        0.1768000      0.6406564      0.6181551       0.0000000
Si        0.3692920      0.8297029      0.7816846       0.0000000
Si        0.1125643      0.8264722      0.7397286       0.0000000
Si        0.9870652      0.8834556      0.6298026       0.0000000
O         0.3358079      0.6733639      0.4976532       0.0000000
O         0.1644051      0.6668052      0.4821544       0.0000000
O         0.2605143      0.9830626      0.6397598       0.0000000
Si        0.3314012      0.0114912      0.6204637       0.0000000
Si        0.1904148      0.0142727      0.6267989       0.0000000
O         0.3330311      0.5232952      0.6601692       0.0000000
O         0.1616256      0.5174498      0.6451354       0.0000000
O         0.2200799      0.8687964      0.0041706       0.0000000
Si        0.1488153      0.8937206      0.9895344       0.0000000
Si        0.2916532      0.8927239      0.9975281       0.0000000
Si        0.4982542      0.8910631      0.8576336       0.0000000
O         0.9271410      0.8288820      0.6816818       0.0000000
O         0.6234945      0.6883537      0.7181388       0.0000000
O         0.7336166      0.6388963      0.6561874       0.0000000
O         0.8401748      0.6971942      0.7344344       0.0000000
O         0.6538863      0.8854100      0.6785480       0.0000000
O         0.6576133      0.8127790      0.8932537       0.0000000
O         0.5505337      0.8355262      0.7823671       0.0000000
O         0.8745038      0.8362373      0.8895223       0.0000000
O         0.8145899      0.9002010      0.7059041       0.0000000
Si        0.6629242      0.6161482      0.6311998       0.0000000
Si        0.8053145      0.6208029      0.6443273       0.0000000
Si        0.6214845      0.8071328      0.7708647       0.0000000
Si        0.8648160      0.8167932      0.7516450       0.0000000
O         0.0618624      0.1537187      0.6892462       0.0000000
O         0.3560122      0.3292209      0.7204903       0.0000000
O         0.2483285      0.3737067      0.6399233       0.0000000
O         0.1356544      0.3196763      0.6925015       0.0000000
O         0.3453345      0.1307694      0.6611423       0.0000000
O         0.3193803      0.1848814      0.8744214       0.0000000
O         0.4342192      0.1962526      0.7976424       0.0000000
O         0.1250805      0.2056421      0.8793823       0.0000000
O         0.1786748      0.1222458      0.6984300       0.0000000
Si        0.3197140      0.4006190      0.6278439       0.0000000
Si        0.1777351      0.3959942      0.6141334       0.0000000
Si        0.3636051      0.2090571      0.7662559       0.0000000
Si        0.1245451      0.2006317      0.7388937       0.0000000
O         0.0422884      0.8201042      0.2857274       0.0000000
O         0.3657937      0.7249554      0.2842072       0.0000000
O         0.2536407      0.6676497      0.3299254       0.0000000
O         0.1430192      0.7136727      0.2608595       0.0000000
O         0.3684964      0.9361029      0.2767597       0.0000000
O         0.3228630      0.8262478      0.1008269       0.0000000
O         0.4399698      0.8241703      0.1469432       0.0000000
O         0.1122227      0.8539825      0.1030864       0.0000000
O         0.1465696      0.9166281      0.3138330       0.0000000
Si        0.3240323      0.6476812      0.3613811       0.0000000
Si        0.1824010      0.6424377      0.3482096       0.0000000
Si        0.3731811      0.8279593      0.2029794       0.0000000
Si        0.1116260      0.8269394      0.2402525       0.0000000
O         0.9471816      0.1791240      0.2847845       0.0000000
O         0.6321384      0.3023895      0.2734761       0.0000000
O         0.7429932      0.3523065      0.3417917       0.0000000
O         0.8566884      0.3098192      0.2936168       0.0000000
O         0.6184485      0.0940937      0.3021970       0.0000000
O         0.6735781      0.1692064      0.1172362       0.0000000
O         0.5544015      0.1948185      0.1484776       0.0000000
O         0.8691824      0.1882830      0.1123970       0.0000000
O         0.8374854      0.1037015      0.3153120       0.0000000
Si        0.6716522      0.3747109      0.3606831       0.0000000
Si        0.8128648      0.3795160      0.3734739       0.0000000
Si        0.6203725      0.1904691      0.2099442       0.0000000
Si        0.8771000      0.1937000      0.2519000       0.0000000
space
 1
supercell 1 1 1
species
O  core  O  core
O  shel  O  shel
Si core  Si core
library catlow nodump
output cif ReferenceDataBase/ECNU-13a_opt
dump every 1 ReferenceDataBase/ECNU-13a.grs
