opti conp nosymm
name     ReferenceDataBase/ECNU-13b
switch_min rfo gnorm 0.08
cuts 1.1
stepmx opt 0.1
switch_stepmx 0.3 gnorm 0.005
maxcyc 500
cell
 22.30580  12.46100  11.45420  90.00000  90.00000  90.00000
fractional
O         0.3575128      0.3211821      0.2814974       0.0000000
O         0.3444543      0.1154816      0.3048227       0.0000000
O         0.3491122      0.2023640      0.0946272       0.0000000
O         0.4448555      0.1923976      0.2188423       0.0000000
Si        0.3123022      0.3866673      0.3633588       0.0000000
Si        0.3736119      0.2067230      0.2260357       0.0000000
O         0.6320850      0.7037025      0.2999505       0.0000000
O         0.6400519      0.9066428      0.3449934       0.0000000
O         0.6701820      0.8366137      0.1387459       0.0000000
O         0.5575871      0.8346735      0.1985642       0.0000000
Si        0.6745372      0.6344200      0.3837996       0.0000000
Si        0.6243547      0.8214598      0.2453437       0.0000000
O         0.6296488      0.3211821      0.7344722       0.0000000
O         0.6427074      0.1154815      0.7111471       0.0000000
O         0.6380494      0.2023641      0.9213426       0.0000000
O         0.5423061      0.1923974      0.7971272       0.0000000
Si        0.6748593      0.3866673      0.6526109       0.0000000
Si        0.6135497      0.2067230      0.7899340       0.0000000
O         0.3550765      0.7037024      0.7160192       0.0000000
O         0.3471097      0.9066427      0.6709763       0.0000000
O         0.3169794      0.8366135      0.8772237       0.0000000
O         0.4295744      0.8346733      0.8174056       0.0000000
Si        0.3126243      0.6344199      0.6321701       0.0000000
Si        0.3628069      0.8214597      0.7706260       0.0000000
O         0.3296077      0.3662385      0.4977326       0.0000000
O         0.6575539      0.3662385      0.5182371       0.0000000
Si        0.3118937      0.0109176      0.3516001       0.0000000
Si        0.6748784      0.0109176      0.3885980       0.0000000
O         0.3199369      0.5109175      0.3311245       0.0000000
O         0.6639912      0.5109175      0.3509977       0.0000000
O         0.3383690      0.0109175      0.0008232       0.0000000
Si        0.3119003      0.1325415      0.0037914       0.0000000
Si        0.6752613      0.1325416      0.0121783       0.0000000
O         0.3146860      0.0109174      0.4894497       0.0000000
O         0.4935808      0.1672330      0.0079848       0.0000000
O         0.4960330      0.0109176      0.1629501       0.0000000
Si        0.4978616      0.1379351      0.1445999       0.0000000
Si        0.4978616      0.8839000      0.1446000       0.0000000
O         0.7435808      0.6671019      0.3633459       0.0000000
O         0.7435808      0.3502306      0.6746965       0.0000000
O         0.7435808      0.6716044      0.6746966       0.0000000
O         0.7435808      0.3547332      0.3633458       0.0000000
O         0.7435808      0.0109176      0.3433222       0.0000000
O         0.7435808      0.0109173      0.7095241       0.0000000
O         0.7435808      0.1307708      0.9721339       0.0000000
O         0.7435808      0.8910643      0.9721339       0.0000000
O         0.8575128      0.7006530      0.7344722       0.0000000
O         0.8444543      0.9063535      0.7111470       0.0000000
O         0.8491122      0.8194711      0.9213425       0.0000000
O         0.9448555      0.8294375      0.7971274       0.0000000
Si        0.8123022      0.6351678      0.6526109       0.0000000
Si        0.8736119      0.8151121      0.7899340       0.0000000
O         0.1320850      0.3181325      0.7160192       0.0000000
O         0.1400519      0.1151923      0.6709763       0.0000000
O         0.1701821      0.1852214      0.8772237       0.0000000
O         0.0575871      0.1871616      0.8174055       0.0000000
Si        0.1745372      0.3874151      0.6321701       0.0000000
Si        0.1243547      0.2003752      0.7706259       0.0000000
O         0.1296488      0.7006530      0.2814975       0.0000000
O         0.1427074      0.9063535      0.3048225       0.0000000
O         0.1380493      0.8194710      0.0946271       0.0000000
O         0.0423061      0.8294377      0.2188424       0.0000000
Si        0.1748594      0.6351678      0.3633588       0.0000000
Si        0.1135497      0.8151121      0.2260357       0.0000000
O         0.8550766      0.3181326      0.2999505       0.0000000
O         0.8471097      0.1151923      0.3449934       0.0000000
O         0.8169795      0.1852215      0.1387459       0.0000000
O         0.9295744      0.1871617      0.1985641       0.0000000
Si        0.8126243      0.3874151      0.3837996       0.0000000
Si        0.8628069      0.2003753      0.2453437       0.0000000
O         0.8296077      0.6555966      0.5182371       0.0000000
O         0.1575539      0.6555966      0.4977326       0.0000000
Si        0.8118937      0.0109175      0.6643695       0.0000000
Si        0.1748784      0.0109175      0.6273717       0.0000000
O         0.8199369      0.5109175      0.6848451       0.0000000
O         0.1639912      0.5109175      0.6649719       0.0000000
O         0.8383690      0.0109176      0.0151465       0.0000000
Si        0.8119003      0.8892936      0.0121783       0.0000000
Si        0.1752613      0.8892934      0.0037914       0.0000000
O         0.8146860      0.0109176      0.5265200       0.0000000
O         0.9935808      0.8546020      0.0079849       0.0000000
O         0.9960330      0.0109175      0.8530196       0.0000000
Si        0.9978616      0.8838999      0.8713698       0.0000000
Si        0.9978616      0.1379351      0.8713697       0.0000000
O         0.2435808      0.3547331      0.6526238       0.0000000
O         0.2435808      0.6716045      0.3412732       0.0000000
O         0.2435808      0.3502307      0.3412731       0.0000000
O         0.2435808      0.6671019      0.6526238       0.0000000
O         0.2435808      0.0109175      0.6726475       0.0000000
O         0.2435808      0.0109178      0.3064456       0.0000000
O         0.2435808      0.8910642      0.0438358       0.0000000
O         0.2435808      0.1307707      0.0438357       0.0000000
O         0.6296488      0.7006530      0.7344722       0.0000000
O         0.6427073      0.9063535      0.7111470       0.0000000
O         0.6380494      0.8194711      0.9213425       0.0000000
O         0.5423060      0.8294375      0.7971274       0.0000000
Si        0.6748593      0.6351678      0.6526109       0.0000000
Si        0.6135497      0.8151121      0.7899340       0.0000000
O         0.3550765      0.3181325      0.7160192       0.0000000
O         0.3471096      0.1151923      0.6709763       0.0000000
O         0.3169795      0.1852214      0.8772237       0.0000000
O         0.4295745      0.1871616      0.8174055       0.0000000
Si        0.3126243      0.3874151      0.6321701       0.0000000
Si        0.3628069      0.2003752      0.7706259       0.0000000
O         0.3575128      0.7006530      0.2814975       0.0000000
O         0.3444541      0.9063535      0.3048225       0.0000000
O         0.3491122      0.8194710      0.0946271       0.0000000
O         0.4448555      0.8294377      0.2188424       0.0000000
Si        0.3123022      0.6351678      0.3633588       0.0000000
Si        0.3736118      0.8151121      0.2260357       0.0000000
O         0.6320850      0.3181326      0.2999505       0.0000000
O         0.6400518      0.1151923      0.3449934       0.0000000
O         0.6701821      0.1852215      0.1387459       0.0000000
O         0.5575871      0.1871617      0.1985641       0.0000000
Si        0.6745372      0.3874151      0.3837996       0.0000000
Si        0.6243547      0.2003753      0.2453437       0.0000000
O         0.6575539      0.6555966      0.5182371       0.0000000
O         0.3296077      0.6555966      0.4977326       0.0000000
Si        0.6752678      0.0109175      0.6643695       0.0000000
Si        0.3122832      0.0109175      0.6273717       0.0000000
O         0.6672246      0.5109175      0.6848451       0.0000000
O         0.3231704      0.5109175      0.6649719       0.0000000
O         0.6487925      0.0109176      0.0151465       0.0000000
Si        0.6752613      0.8892936      0.0121783       0.0000000
Si        0.3119003      0.8892934      0.0037914       0.0000000
O         0.6724756      0.0109176      0.5265200       0.0000000
O         0.4935808      0.8546020      0.0079849       0.0000000
O         0.4911286      0.0109175      0.8530196       0.0000000
Si        0.4893000      0.8838999      0.8713698       0.0000000
Si        0.4893000      0.1379351      0.8713697       0.0000000
O         0.1296488      0.3211821      0.2814974       0.0000000
O         0.1427073      0.1154816      0.3048227       0.0000000
O         0.1380494      0.2023640      0.0946272       0.0000000
O         0.0423060      0.1923976      0.2188423       0.0000000
Si        0.1748594      0.3866673      0.3633588       0.0000000
Si        0.1135497      0.2067230      0.2260357       0.0000000
O         0.8550766      0.7037025      0.2999505       0.0000000
O         0.8471097      0.9066428      0.3449934       0.0000000
O         0.8169795      0.8366137      0.1387459       0.0000000
O         0.9295745      0.8346735      0.1985642       0.0000000
Si        0.8126243      0.6344200      0.3837996       0.0000000
Si        0.8628069      0.8214598      0.2453437       0.0000000
O         0.8575128      0.3211821      0.7344722       0.0000000
O         0.8444541      0.1154815      0.7111471       0.0000000
O         0.8491122      0.2023641      0.9213426       0.0000000
O         0.9448555      0.1923974      0.7971272       0.0000000
Si        0.8123022      0.3866673      0.6526109       0.0000000
Si        0.8736118      0.2067230      0.7899340       0.0000000
O         0.1320850      0.7037024      0.7160192       0.0000000
O         0.1400519      0.9066427      0.6709763       0.0000000
O         0.1701821      0.8366135      0.8772237       0.0000000
O         0.0575871      0.8346733      0.8174056       0.0000000
Si        0.1745372      0.6344199      0.6321701       0.0000000
Si        0.1243547      0.8214597      0.7706260       0.0000000
O         0.1575539      0.3662385      0.4977326       0.0000000
O         0.8296077      0.3662385      0.5182371       0.0000000
Si        0.1752678      0.0109176      0.3516001       0.0000000
Si        0.8122832      0.0109176      0.3885980       0.0000000
O         0.1672246      0.5109175      0.3311245       0.0000000
O         0.8231704      0.5109175      0.3509977       0.0000000
O         0.1487925      0.0109175      0.0008232       0.0000000
Si        0.1752613      0.1325415      0.0037914       0.0000000
Si        0.8119003      0.1325416      0.0121783       0.0000000
O         0.1724756      0.0109174      0.4894497       0.0000000
O         0.9935808      0.1672330      0.0079848       0.0000000
O         0.9911286      0.0109176      0.1629501       0.0000000
Si        0.9893000      0.1379351      0.1445999       0.0000000
Si        0.9893000      0.8839000      0.1446000       0.0000000
space
 1
supercell 1 1 1
species
O  core  O  core
O  shel  O  shel
Si core  Si core
library catlow nodump
output cif ReferenceDataBase/ECNU-13b_opt
dump every 1 ReferenceDataBase/ECNU-13b.grs
