opti conp nosymm
name     ReferenceDataBase/ECNU-23b
switch_min rfo gnorm 0.08
cuts 1.1
stepmx opt 0.1
switch_stepmx 0.3 gnorm 0.005
maxcyc 500
cell
 21.67620  13.54020  10.01310  90.00000  90.00000  89.08660
fractional
O         0.7515593      0.9861713      0.1772883       0.0000000
O         0.2332540      0.0266657      0.1772883       0.0000000
O         0.2694120      0.0144900      0.9275587       0.0000000
O         0.7154012      0.9983470      0.9275587       0.0000000
O         0.2515593      0.4861713      0.6772883       0.0000000
O         0.7332540      0.5266657      0.6772883       0.0000000
O         0.7694120      0.5144901      0.4275587       0.0000000
O         0.2154012      0.4983470      0.4275587       0.0000000
O         0.6684033      0.6147207      0.4961912       0.0000000
O         0.3164099      0.3981163      0.4961912       0.0000000
O         0.3142925      0.5913130      0.5061174       0.0000000
O         0.6705208      0.4215240      0.5061174       0.0000000
O         0.1684033      0.1147207      0.9961912       0.0000000
O         0.8164099      0.8981163      0.9961912       0.0000000
O         0.8142925      0.0913130      0.0061174       0.0000000
O         0.1705208      0.9215240      0.0061174       0.0000000
O         0.6374148      0.9383541      0.2394556       0.0000000
O         0.3473984      0.0744829      0.2394556       0.0000000
O         0.3114699      0.8956069      0.7458675       0.0000000
O         0.6733434      0.1172301      0.7458674       0.0000000
O         0.1374148      0.4383541      0.7394556       0.0000000
O         0.8473984      0.5744829      0.7394556       0.0000000
O         0.8114699      0.3956069      0.2458675       0.0000000
O         0.1733434      0.6172301      0.2458675       0.0000000
O         0.5451005      0.8277940      0.2943086       0.0000000
O         0.4397127      0.1850430      0.2943086       0.0000000
O         0.4295810      0.8477355      0.7326357       0.0000000
O         0.5552322      0.1651015      0.7326357       0.0000000
O         0.0451005      0.3277940      0.7943086       0.0000000
O         0.9397127      0.6850430      0.7943086       0.0000000
O         0.9295810      0.3477355      0.2326358       0.0000000
O         0.0552322      0.6651015      0.2326358       0.0000000
O         0.6171519      0.7797710      0.0917665       0.0000000
O         0.3676613      0.2330660      0.0917665       0.0000000
O         0.3469560      0.7253184      0.8363519       0.0000000
O         0.6378573      0.2875186      0.8363519       0.0000000
O         0.1171519      0.2797710      0.5917665       0.0000000
O         0.8676613      0.7330660      0.5917665       0.0000000
O         0.8469560      0.2253184      0.3363519       0.0000000
O         0.1378573      0.7875186      0.3363519       0.0000000
O         0.3253683      0.2525496      0.3309725       0.0000000
O         0.6594449      0.7602874      0.3309725       0.0000000
O         0.6342313      0.2491831      0.5802498       0.0000000
O         0.3505820      0.7636539      0.5802498       0.0000000
O         0.8253683      0.7525496      0.8309725       0.0000000
O         0.1594449      0.2602874      0.8309725       0.0000000
O         0.1342313      0.7491831      0.0802498       0.0000000
O         0.8505819      0.2636539      0.0802498       0.0000000
O         0.2499163      0.4800877      0.1764091       0.0000000
O         0.7348970      0.5327494      0.1764091       0.0000000
O         0.7677084      0.5287724      0.9258922       0.0000000
O         0.2171048      0.4840646      0.9258922       0.0000000
O         0.7499163      0.9800876      0.6764091       0.0000000
O         0.2348970      0.0327493      0.6764091       0.0000000
O         0.2677084      0.0287724      0.4258921       0.0000000
O         0.7171049      0.9840646      0.4258921       0.0000000
O         0.1611221      0.1087868      0.5008705       0.0000000
O         0.8236911      0.9040502      0.5008705       0.0000000
O         0.8087838      0.0967418      0.5068095       0.0000000
O         0.1760294      0.9160952      0.5068095       0.0000000
O         0.6611221      0.6087868      0.0008704       0.0000000
O         0.3236911      0.4040502      0.0008704       0.0000000
O         0.3087838      0.5967418      0.0068095       0.0000000
O         0.6760294      0.4160952      0.0068095       0.0000000
O         0.1364764      0.4340310      0.2599605       0.0000000
O         0.8483368      0.5788060      0.2599605       0.0000000
O         0.8107158      0.3934962      0.7640383       0.0000000
O         0.1740974      0.6193408      0.7640383       0.0000000
O         0.6364764      0.9340310      0.7599605       0.0000000
O         0.3483368      0.0788060      0.7599605       0.0000000
O         0.3107158      0.8934962      0.2640383       0.0000000
O         0.6740974      0.1193408      0.2640383       0.0000000
O         0.0443208      0.3280809      0.1822932       0.0000000
O         0.9404925      0.6847562      0.1822933       0.0000000
O         0.9293721      0.3459681      0.7498919       0.0000000
O         0.0554411      0.6668689      0.7498919       0.0000000
O         0.5443208      0.8280808      0.6822932       0.0000000
O         0.4404925      0.1847561      0.6822932       0.0000000
O         0.4293721      0.8459681      0.2498919       0.0000000
O         0.5554411      0.1668689      0.2498919       0.0000000
O         0.1542069      0.2959659      0.0886528       0.0000000
O         0.8306063      0.7168711      0.0886528       0.0000000
O         0.8429911      0.2196020      0.8321540       0.0000000
O         0.1418222      0.7932350      0.8321540       0.0000000
O         0.6542069      0.7959659      0.5886528       0.0000000
O         0.3306063      0.2168711      0.5886528       0.0000000
O         0.3429910      0.7196020      0.3321540       0.0000000
O         0.6418222      0.2932350      0.3321540       0.0000000
O         0.8575671      0.7659265      0.3368717       0.0000000
O         0.1272462      0.2469105      0.3368717       0.0000000
O         0.1311614      0.7448487      0.5840117       0.0000000
O         0.8536518      0.2679883      0.5840117       0.0000000
O         0.3575671      0.2659265      0.8368717       0.0000000
O         0.6272461      0.7469105      0.8368717       0.0000000
O         0.6311615      0.2448487      0.0840117       0.0000000
O         0.3536518      0.7679883      0.0840118       0.0000000
O         0.9924066      0.5064185      0.1876785       0.0000000
O         0.9924066      0.5064185      0.7892259       0.0000000
O         0.4924066      0.0064185      0.6876785       0.0000000
O         0.4924066      0.0064185      0.2892259       0.0000000
O         0.9702056      0.3853973      0.9887447       0.0000000
O         0.0146076      0.6274397      0.9887447       0.0000000
O         0.4702056      0.8853973      0.4887447       0.0000000
O         0.5146076      0.1274397      0.4887447       0.0000000
O         0.7402650      0.2488441      0.9746281       0.0000000
O         0.2445483      0.7639929      0.9746281       0.0000000
O         0.2578798      0.2405703      0.9801469       0.0000000
O         0.7269335      0.7722667      0.9801469       0.0000000
O         0.2402649      0.7488441      0.4746281       0.0000000
O         0.7445483      0.2639929      0.4746281       0.0000000
O         0.7578798      0.7405703      0.4801469       0.0000000
O         0.2269335      0.2722667      0.4801469       0.0000000
Si        0.6946665      0.0064359      0.2755628       0.0000000
Si        0.2901467      0.0064011      0.2755628       0.0000000
Si        0.2912595      0.0065111      0.7754757       0.0000000
Si        0.6935537      0.0063259      0.7754757       0.0000000
Si        0.1946665      0.5064359      0.7755628       0.0000000
Si        0.7901467      0.5064011      0.7755628       0.0000000
Si        0.7912595      0.5065111      0.2754757       0.0000000
Si        0.1935537      0.5063259      0.2754757       0.0000000
Si        0.7097292      0.5196074      0.0266185       0.0000000
Si        0.2750840      0.4932296      0.0266185       0.0000000
Si        0.2097292      0.0196074      0.5266185       0.0000000
Si        0.7750840      0.9932296      0.5266185       0.0000000
Si        0.2106286      0.0182711      0.0254327       0.0000000
Si        0.7741847      0.9945659      0.0254327       0.0000000
Si        0.7106286      0.5182711      0.5254327       0.0000000
Si        0.2741847      0.4945659      0.5254327       0.0000000
Si        0.6590723      0.7267810      0.9792045       0.0000000
Si        0.3257409      0.2860561      0.9792045       0.0000000
Si        0.3116257      0.7129321      0.9765738       0.0000000
Si        0.6731876      0.2999049      0.9765738       0.0000000
Si        0.1590724      0.2267809      0.4792045       0.0000000
Si        0.8257409      0.7860560      0.4792045       0.0000000
Si        0.8116257      0.2129321      0.4765738       0.0000000
Si        0.1731875      0.7999049      0.4765738       0.0000000
Si        0.6144684      0.8261052      0.2390777       0.0000000
Si        0.3703449      0.1867318      0.2390777       0.0000000
Si        0.3604376      0.8079304      0.7252995       0.0000000
Si        0.6243756      0.2049066      0.7252995       0.0000000
Si        0.1144684      0.3261052      0.7390777       0.0000000
Si        0.8703449      0.6867318      0.7390777       0.0000000
Si        0.8604376      0.3079304      0.2252995       0.0000000
Si        0.1243756      0.7049066      0.2252995       0.0000000
Si        0.1844221      0.2296142      0.9750772       0.0000000
Si        0.8003911      0.7832228      0.9750772       0.0000000
Si        0.8097775      0.2070753      0.9740756       0.0000000
Si        0.1750358      0.8057617      0.9740756       0.0000000
Si        0.6844221      0.7296142      0.4750772       0.0000000
Si        0.3003911      0.2832228      0.4750772       0.0000000
Si        0.3097775      0.7070753      0.4740756       0.0000000
Si        0.6750358      0.3057617      0.4740756       0.0000000
Si        0.1158927      0.3249363      0.2188634       0.0000000
Si        0.8689206      0.6879007      0.2188634       0.0000000
Si        0.8605467      0.3079269      0.7329062       0.0000000
Si        0.1242665      0.7049101      0.7329062       0.0000000
Si        0.6158926      0.8249363      0.7188634       0.0000000
Si        0.3689206      0.1879007      0.7188634       0.0000000
Si        0.3605467      0.8079269      0.2329062       0.0000000
Si        0.6242665      0.2049101      0.2329062       0.0000000
Si        0.9845195      0.3930120      0.1457081       0.0000000
Si        0.0002937      0.6198251      0.1457081       0.0000000
Si        0.9848732      0.3926870      0.8322001       0.0000000
Si        0.9999400      0.6201500      0.8322001       0.0000000
Si        0.4845195      0.8930119      0.6457081       0.0000000
Si        0.5002937      0.1198251      0.6457080       0.0000000
Si        0.4848732      0.8926870      0.3322000       0.0000000
Si        0.4999400      0.1201500      0.3322000       0.0000000
space
 1
supercell 1 1 1
species
O  core  O  core
O  shel  O  shel
Si core  Si core
library catlow nodump
output cif ReferenceDataBase/ECNU-23b_opt
dump every 1 ReferenceDataBase/ECNU-23b.grs
