opti conp nosymm
name     ReferenceDataBase/EWF
switch_min rfo gnorm 0.08
cuts 1.1
stepmx opt 0.1
switch_stepmx 0.3 gnorm 0.005
maxcyc 500
cell
 11.04840  22.81450  25.03230  89.96000  90.00420  89.98980
fractional
Si        0.3619345      0.2261620      0.1931091       0.0000000
Si        0.3631095      0.3542018      0.1576154       0.0000000
Si        0.2680330      0.4119815      0.0561448       0.0000000
Si        0.2645890      0.1072990      0.1608648       0.0000000
Si        0.1528104      0.0427692      0.0662455       0.0000000
Si        0.2680905      0.4205904      0.2545064       0.0000000
Si        0.1441210      0.0439060      0.2536257       0.0000000
Si        0.5064254      0.0357281      0.1771474       0.0000000
Si        0.0066292      0.4431482      0.0717168       0.0000000
Si        0.0008207      0.4571834      0.2713217       0.0000000
O         0.3202987      0.2881657      0.1689344       0.0000000
O         0.3385026      0.3690456      0.0959679       0.0000000
O         0.2896191      0.4000516      0.1939185       0.0000000
O         0.2834214      0.1769799      0.1631236       0.0000000
O         0.2161590      0.0917010      0.1023955       0.0000000
O         0.1658634      0.0877640      0.2045372       0.0000000
O         0.3065604      0.3954938      0.9962060       0.0000000
O         0.2102944      0.9798738      0.0801340       0.0000000
O         0.1240512      0.4023154      0.0628768       0.0000000
O         0.3907517      0.0764915      0.1733097       0.0000000
O         0.3313405      0.2248942      0.2555399       0.0000000
O         0.1957651      0.9807667      0.2369163       0.0000000
O         0.1255232      0.4227165      0.2648967       0.0000000
O         0.5038928      0.3613752      0.1713085       0.0000000
O         0.5032761      0.2147188      0.1830114       0.0000000
O         0.5171146      0.0156717      0.2385745       0.0000000
O         0.4949844      0.9789198      0.1398875       0.0000000
O         0.0113997      0.0397735      0.0783740       0.0000000
O         0.0031580      0.0405993      0.2667106       0.0000000
O         0.5074688      0.9956194      0.0362656       0.0000000
Si        0.6525190      0.7399281      0.6934562       0.0000000
Si        0.6507389      0.6118864      0.6578224       0.0000000
Si        0.7450877      0.5538033      0.5564320       0.0000000
Si        0.7507644      0.8591464      0.6620116       0.0000000
Si        0.8635765      0.9233289      0.5672364       0.0000000
Si        0.7450497      0.5446628      0.7545297       0.0000000
Si        0.8747135      0.9210651      0.7542556       0.0000000
Si        0.5104722      0.9320085      0.6783143       0.0000000
Si        0.0061953      0.5222113      0.5717274       0.0000000
Si        0.0124860      0.5085133      0.7712265       0.0000000
O         0.6944764      0.6777176      0.6697164       0.0000000
O         0.6758607      0.5972654      0.5961690       0.0000000
O         0.7232876      0.5655180      0.6940247       0.0000000
O         0.7293850      0.7895633      0.6632318       0.0000000
O         0.7983664      0.8751103      0.6035132       0.0000000
O         0.8512288      0.8768678      0.7055710       0.0000000
O         0.7058921      0.5700147      0.4965056       0.0000000
O         0.8072911      0.9866269      0.5803922       0.0000000
O         0.8892357      0.5632952      0.5626583       0.0000000
O         0.6271119      0.8916416      0.6758019       0.0000000
O         0.6834316      0.7420556      0.7558885       0.0000000
O         0.8073435      0.9814996      0.7406498       0.0000000
O         0.8876559      0.5430205      0.7650924       0.0000000
O         0.5096297      0.6048847      0.6709878       0.0000000
O         0.5111925      0.7506400      0.6832308       0.0000000
O         0.4982433      0.9538759      0.7390668       0.0000000
O         0.5202065      0.9882273      0.6400681       0.0000000
O         0.0048581      0.9254516      0.5798349       0.0000000
O         0.0155314      0.9326187      0.7613912       0.0000000
O         0.5083057      0.9673128      0.5374935       0.0000000
Si        0.3679429      0.7493310      0.8163749       0.0000000
Si        0.3662375      0.6213054      0.8500632       0.0000000
Si        0.2646436      0.5454881      0.9425945       0.0000000
Si        0.2668509      0.8660036      0.8563187       0.0000000
Si        0.1483340      0.9182878      0.9519860       0.0000000
Si        0.2633697      0.5525786      0.7540520       0.0000000
Si        0.1572413      0.9247333      0.7537084       0.0000000
Si        0.5089701      0.9312820      0.8773874       0.0000000
Si        0.0030052      0.5109578      0.9656193       0.0000000
O         0.3460823      0.6910070      0.8510957       0.0000000
O         0.2891319      0.5925406      0.8969580       0.0000000
O         0.3273016      0.5990501      0.7921082       0.0000000
O         0.2774852      0.7986035      0.8386307       0.0000000
O         0.1742040      0.8704398      0.9061491       0.0000000
O         0.2184359      0.9059936      0.8087550       0.0000000
O         0.3375958      0.5624710      0.9959915       0.0000000
O         0.2082389      0.9793652      0.9326333       0.0000000
O         0.1215861      0.5484407      0.9526427       0.0000000
O         0.3969139      0.8879551      0.8747549       0.0000000
O         0.3372868      0.7372980      0.7548075       0.0000000
O         0.2142435      0.9859902      0.7347602       0.0000000
O         0.1191531      0.5554590      0.7624879       0.0000000
O         0.5048749      0.6041099      0.8591043       0.0000000
O         0.5069523      0.7698755      0.8215888       0.0000000
O         0.4935775      0.9872382      0.8388567       0.0000000
O         0.5205616      0.9533276      0.9381820       0.0000000
O         0.0063785      0.9269453      0.9615820       0.0000000
Si        0.6440815      0.2159022      0.3172810       0.0000000
Si        0.6457793      0.3443584      0.3503552       0.0000000
Si        0.7484202      0.4202446      0.4427205       0.0000000
Si        0.7489152      0.0995073      0.3567260       0.0000000
Si        0.8674198      0.0455234      0.4513038       0.0000000
Si        0.7498575      0.4134873      0.2546615       0.0000000
Si        0.8618148      0.0430114      0.2541429       0.0000000
Si        0.5068332      0.0351278      0.3803039       0.0000000
Si        0.0103011      0.4545164      0.4656580       0.0000000
O         0.6654830      0.2746398      0.3513443       0.0000000
O         0.7224228      0.3730204      0.3974340       0.0000000
O         0.6853804      0.3669430      0.2925535       0.0000000
O         0.7348495      0.1672686      0.3405877       0.0000000
O         0.8461760      0.0933062      0.4047253       0.0000000
O         0.7905843      0.0611869      0.3068797       0.0000000
O         0.6765308      0.4035361      0.4964339       0.0000000
O         0.8050643      0.9847479      0.4326166       0.0000000
O         0.8917325      0.4172280      0.4521485       0.0000000
O         0.6227345      0.0757750      0.3777287       0.0000000
O         0.6755362      0.2271440      0.2556491       0.0000000
O         0.8130817      0.9800737      0.2352153       0.0000000
O         0.8940594      0.4101750      0.2630462       0.0000000
O         0.5069836      0.3613755      0.3590820       0.0000000
O         0.5049574      0.1951390      0.3221376       0.0000000
O         0.5121965      0.9817429      0.3385368       0.0000000
O         0.4984006      0.0097927      0.4399217       0.0000000
O         0.0087613      0.0349195      0.4616762       0.0000000
Si        0.6460286      0.7490853      0.8172829       0.0000000
Si        0.6443962      0.6189835      0.8493834       0.0000000
Si        0.7436730      0.5470720      0.9442070       0.0000000
Si        0.7534731      0.8646806      0.8559099       0.0000000
Si        0.8633914      0.9210107      0.9530107       0.0000000
O         0.6668086      0.6881840      0.8476087       0.0000000
O         0.7199376      0.5938306      0.8983931       0.0000000
O         0.6840928      0.5911523      0.7936153       0.0000000
O         0.7330809      0.7961213      0.8452137       0.0000000
O         0.8314713      0.8714042      0.9098918       0.0000000
O         0.8275510      0.8937441      0.8086090       0.0000000
O         0.6688867      0.5633412      0.9971859       0.0000000
O         0.8099986      0.9829955      0.9323819       0.0000000
O         0.8862578      0.5509664      0.9556784       0.0000000
O         0.6263392      0.8965040      0.8600280       0.0000000
Si        0.3660636      0.2163655      0.3170539       0.0000000
Si        0.3675987      0.3461116      0.3494847       0.0000000
Si        0.2694736      0.4182199      0.4442267       0.0000000
Si        0.2636271      0.1002620      0.3557847       0.0000000
Si        0.1508017      0.0431167      0.4513814       0.0000000
O         0.3454229      0.2768111      0.3481315       0.0000000
O         0.2920387      0.3713771      0.3984067       0.0000000
O         0.3276869      0.3735604      0.2935422       0.0000000
O         0.2758896      0.1689761      0.3428912       0.0000000
O         0.1737425      0.0917129      0.4059346       0.0000000
O         0.2139085      0.0653642      0.3054909       0.0000000
O         0.3451057      0.4020157      0.4970371       0.0000000
O         0.2082129      0.9815478      0.4317816       0.0000000
O         0.1270872      0.4144149      0.4561907       0.0000000
O         0.3935381      0.0757160      0.3700246       0.0000000
Si        0.6445556      0.2261938      0.1931172       0.0000000
Si        0.6441677      0.3536036      0.1569364       0.0000000
Si        0.7421473      0.4142916      0.0578857       0.0000000
Si        0.7472893      0.1075887      0.1597026       0.0000000
Si        0.8697786      0.0452175      0.0673854       0.0000000
O         0.6860613      0.2872488      0.1670995       0.0000000
O         0.6690014      0.3702632      0.0957343       0.0000000
O         0.7198315      0.3980542      0.1936376       0.0000000
O         0.7219632      0.1764705      0.1637324       0.0000000
O         0.8134459      0.0959844      0.1037621       0.0000000
O         0.8364133      0.0889246      0.2072917       0.0000000
O         0.7067776      0.3987454      0.9975299       0.0000000
O         0.8078609      0.9836324      0.0829815       0.0000000
O         0.8855507      0.4043311      0.0660951       0.0000000
O         0.6227376      0.0726080      0.1617841       0.0000000
Si        0.3696634      0.7394469      0.6924221       0.0000000
Si        0.3694780      0.6124057      0.6561586       0.0000000
Si        0.2710266      0.5509651      0.5576363       0.0000000
Si        0.2711672      0.8591406      0.6601842       0.0000000
Si        0.1461703      0.9213513      0.5676477       0.0000000
O         0.3278260      0.6789572      0.6654242       0.0000000
O         0.3450125      0.5950295      0.5950993       0.0000000
O         0.2931191      0.5684140      0.6930849       0.0000000
O         0.2943186      0.7900059      0.6631947       0.0000000
O         0.2056538      0.8718196      0.6043741       0.0000000
O         0.1835010      0.8770187      0.7085094       0.0000000
O         0.3051443      0.5664449      0.4970893       0.0000000
O         0.2059481      0.9837551      0.5816929       0.0000000
O         0.1277240      0.5607506      0.5663534       0.0000000
O         0.3964437      0.8933650      0.6631396       0.0000000
Si        0.8676440      0.7147576      0.1918665       0.0000000
Si        0.8694584      0.8436292      0.1627739       0.0000000
Si        0.7705770      0.9171100      0.0693883       0.0000000
Si        0.7693762      0.5971301      0.1530101       0.0000000
Si        0.6451352      0.5432780      0.0578269       0.0000000
Si        0.7660584      0.9171795      0.2552929       0.0000000
Si        0.6610426      0.5431862      0.2555425       0.0000000
Si        0.0082748      0.5281292      0.1671554       0.0000000
Si        0.5054961      0.9473776      0.0828263       0.0000000
Si        0.5102320      0.9596963      0.2777518       0.0000000
O         0.8433180      0.7744038      0.1592277       0.0000000
O         0.8439473      0.8715405      0.1053074       0.0000000
O         0.7845560      0.8717343      0.2075581       0.0000000
O         0.7795643      0.6653497      0.1680897       0.0000000
O         0.7005311      0.5923927      0.0966321       0.0000000
O         0.6902071      0.5607244      0.1951453       0.0000000
O         0.8007875      0.9026279      0.0082733       0.0000000
O         0.7095062      0.4815845      0.0706797       0.0000000
O         0.6275470      0.9088540      0.0802133       0.0000000
O         0.9025990      0.5705242      0.1478496       0.0000000
O         0.8346788      0.7253904      0.2533225       0.0000000
O         0.7027408      0.4778467      0.2686594       0.0000000
O         0.6239807      0.9173167      0.2684536       0.0000000
O         0.0082828      0.8548923      0.1796241       0.0000000
O         0.0068783      0.6947184      0.1859489       0.0000000
O         0.9860514      0.5094414      0.2283810       0.0000000
O         0.0130242      0.4707258      0.1305154       0.0000000
O         0.5033269      0.5363463      0.0673879       0.0000000
O         0.5197492      0.5479778      0.2670700       0.0000000
O         0.0060057      0.4944371      0.0277496       0.0000000
Si        0.1455942      0.2508261      0.6917492       0.0000000
Si        0.1454970      0.1226711      0.6603842       0.0000000
Si        0.2452176      0.0497108      0.5670765       0.0000000
Si        0.2439472      0.3687131      0.6530175       0.0000000
Si        0.3684730      0.4220181      0.5577233       0.0000000
Si        0.2511389      0.0507726      0.7536986       0.0000000
Si        0.3525824      0.4228991      0.7551953       0.0000000
Si        0.0044808      0.4372661      0.6672990       0.0000000
Si        0.5098237      0.0178049      0.5820909       0.0000000
Si        0.5038995      0.0098847      0.7782214       0.0000000
O         0.1694433      0.1920916      0.6578453       0.0000000
O         0.1730902      0.0962082      0.6025378       0.0000000
O         0.2311280      0.0943723      0.7047330       0.0000000
O         0.2334091      0.3006800      0.6686205       0.0000000
O         0.3124647      0.3729900      0.5965182       0.0000000
O         0.3237209      0.4052456      0.6948072       0.0000000
O         0.2150126      0.0638139      0.5057240       0.0000000
O         0.3041281      0.4837281      0.5704085       0.0000000
O         0.3884759      0.0566846      0.5777922       0.0000000
O         0.1109212      0.3954862      0.6477964       0.0000000
O         0.1794537      0.2387919      0.7529547       0.0000000
O         0.3117364      0.4884003      0.7678980       0.0000000
O         0.3928376      0.0537376      0.7677490       0.0000000
O         0.0072359      0.1098144      0.6771071       0.0000000
O         0.0060862      0.2706072      0.6864904       0.0000000
O         0.0267385      0.4561667      0.7284253       0.0000000
O         0.9983166      0.4945757      0.6305046       0.0000000
O         0.5101679      0.4288361      0.5676007       0.0000000
O         0.4936728      0.4176451      0.7670735       0.0000000
O         0.0063632      0.4709616      0.5277751       0.0000000
Si        0.8678184      0.2402486      0.8170991       0.0000000
Si        0.8673226      0.1127442      0.8546913       0.0000000
Si        0.7712697      0.0475300      0.9530276       0.0000000
Si        0.7642885      0.3579327      0.8492051       0.0000000
Si        0.6481752      0.4207208      0.9425123       0.0000000
Si        0.7662112      0.0464408      0.7564332       0.0000000
Si        0.6346503      0.4172314      0.7543140       0.0000000
Si        0.0053389      0.4280977      0.8699996       0.0000000
Si        0.5112864      0.0117613      0.9740945       0.0000000
O         0.8237743      0.1773337      0.8380925       0.0000000
O         0.7972186      0.0952311      0.9080853       0.0000000
O         0.8414205      0.0676375      0.8072661       0.0000000
O         0.7964829      0.2893314      0.8505488       0.0000000
O         0.6747673      0.3718999      0.8981455       0.0000000
O         0.6994199      0.3721043      0.7937650       0.0000000
O         0.8465329      0.0624374      0.0061501       0.0000000
O         0.7063425      0.4823152      0.9239243       0.0000000
O         0.6285588      0.0517263      0.9646999       0.0000000
O         0.8843408      0.3960898      0.8526598       0.0000000
O         0.8339276      0.2453552      0.7551644       0.0000000
O         0.6874537      0.4814980      0.7640336       0.0000000
O         0.6246726      0.0475623      0.7703268       0.0000000
O         0.0081544      0.1106286      0.8674601       0.0000000
O         0.0101511      0.2485200      0.8260007       0.0000000
O         0.0267649      0.4825001      0.8304151       0.0000000
O         0.9953702      0.4520812      0.9301676       0.0000000
O         0.5059499      0.4298587      0.9504518       0.0000000
Si        0.1470042      0.7254265      0.3165840       0.0000000
Si        0.1496565      0.8525528      0.3547542       0.0000000
Si        0.2446471      0.9169593      0.4533450       0.0000000
Si        0.2492380      0.6075295      0.3488226       0.0000000
Si        0.3647233      0.5445337      0.4422743       0.0000000
Si        0.2489503      0.9187046      0.2558157       0.0000000
Si        0.3788536      0.5478092      0.2541914       0.0000000
Si        0.0080394      0.5375450      0.3701037       0.0000000
Si        0.5052586      0.9511331      0.4752568       0.0000000
O         0.1925424      0.7881588      0.3373378       0.0000000
O         0.2173583      0.8686243      0.4091500       0.0000000
O         0.1797981      0.8988462      0.3087716       0.0000000
O         0.2188358      0.6762961      0.3498049       0.0000000
O         0.3387704      0.5932678      0.3976971       0.0000000
O         0.3130637      0.5928622      0.2932895       0.0000000
O         0.1682305      0.9034571      0.5064884       0.0000000
O         0.3069348      0.4828837      0.4236336       0.0000000
O         0.3872053      0.9118623      0.4652687       0.0000000
O         0.1281213      0.5702454      0.3526184       0.0000000
O         0.1789967      0.7204413      0.2544757       0.0000000
O         0.3271335      0.4833826      0.2643336       0.0000000
O         0.3912353      0.9215615      0.2673982       0.0000000
O         0.0084402      0.8548192      0.3662766       0.0000000
O         0.0048503      0.7173523      0.3262940       0.0000000
O         0.9873682      0.4831919      0.3304863       0.0000000
O         0.0191004      0.5134156      0.4302156       0.0000000
O         0.5069050      0.5355821      0.4505922       0.0000000
Si        0.1513902      0.2377100      0.8156603       0.0000000
Si        0.1487033      0.1110443      0.8539416       0.0000000
Si        0.2478619      0.0442649      0.9514875       0.0000000
Si        0.2412388      0.3563446      0.8509939       0.0000000
Si        0.3645911      0.4193503      0.9415419       0.0000000
O         0.1945436      0.1755893      0.8385773       0.0000000
O         0.2193771      0.0912979      0.9063922       0.0000000
O         0.1718283      0.0675236      0.8049083       0.0000000
O         0.2289590      0.2864757      0.8466261       0.0000000
O         0.3421320      0.3719465      0.8952141       0.0000000
O         0.2782789      0.3799893      0.7933000       0.0000000
O         0.1759505      0.0606670      0.0051628       0.0000000
O         0.3027587      0.4804254      0.9234610       0.0000000
O         0.3913273      0.0480912      0.9606920       0.0000000
O         0.1136231      0.3824292      0.8686264       0.0000000
Si        0.8635017      0.7277932      0.3158710       0.0000000
Si        0.8672560      0.8543352      0.3546079       0.0000000
Si        0.7683923      0.9197091      0.4525118       0.0000000
Si        0.7719390      0.6095580      0.3514447       0.0000000
Si        0.6482475      0.5463042      0.4417628       0.0000000
O         0.8206791      0.7903905      0.3377779       0.0000000
O         0.7993871      0.8719808      0.4083973       0.0000000
O         0.8407156      0.9000489      0.3076603       0.0000000
O         0.7861332      0.6794171      0.3475688       0.0000000
O         0.6707683      0.5939764      0.3955824       0.0000000
O         0.7340817      0.5865810      0.2936354       0.0000000
O         0.8413141      0.9050073      0.5062696       0.0000000
O         0.7102949      0.4853339      0.4235658       0.0000000
O         0.6250176      0.9144789      0.4619488       0.0000000
O         0.8988516      0.5826505      0.3689694       0.0000000
Si        0.1465851      0.7136963      0.1925112       0.0000000
Si        0.1475710      0.8434532      0.1636500       0.0000000
Si        0.2452365      0.9129339      0.0671131       0.0000000
Si        0.2548386      0.5970361      0.1554874       0.0000000
Si        0.3617298      0.5418748      0.0564880       0.0000000
O         0.1739929      0.7743346      0.1622815       0.0000000
O         0.1744469      0.8687531      0.1053133       0.0000000
O         0.2314700      0.8734582      0.2077717       0.0000000
O         0.2332260      0.6655183      0.1659939       0.0000000
O         0.3023345      0.5898695      0.0952805       0.0000000
O         0.3568276      0.5700813      0.1942212       0.0000000
O         0.2095177      0.8967831      0.0067815       0.0000000
O         0.3000098      0.4794621      0.0681977       0.0000000
O         0.3895004      0.9052232      0.0752542       0.0000000
O         0.1331467      0.5618427      0.1655032       0.0000000
Si        0.8665479      0.2513482      0.6931478       0.0000000
Si        0.8671592      0.1213264      0.6628488       0.0000000
Si        0.7700219      0.0529702      0.5660526       0.0000000
Si        0.7585976      0.3678488      0.6557400       0.0000000
Si        0.6519188      0.4238383      0.5569134       0.0000000
O         0.8391930      0.1902598      0.6638708       0.0000000
O         0.8382241      0.0984693      0.6038772       0.0000000
O         0.7855350      0.0882906      0.7059966       0.0000000
O         0.7799285      0.2992312      0.6659900       0.0000000
O         0.7115849      0.3756686      0.5955197       0.0000000
O         0.6564579      0.3945451      0.6944941       0.0000000
O         0.8066529      0.0684800      0.5056559       0.0000000
O         0.7126093      0.4864204      0.5689754       0.0000000
O         0.6255069      0.0597832      0.5732711       0.0000000
O         0.8805000      0.4027600      0.6661200       0.0000000
space
 1
supercell 1 1 1
species
O  core  O  core
O  shel  O  shel
Si core  Si core
library catlow nodump
output cif ReferenceDataBase/EWF_opt
dump every 1 ReferenceDataBase/EWF.grs
