opti conv nosymm shellonly
name     ReferenceDataBase/ZEO-3
switch_min rfo gnorm 0.08
cuts 1.1
stepmx opt 0.1
switch_stepmx 0.3 gnorm 0.005
maxcyc 500
cell
 21.45360  21.23700  14.41740  90.00000 108.36090  90.00000
fractional
Si        0.4129821      0.5230692      0.1335887       0.0000000
Si        0.7697016      0.1740229      0.1527753       0.0000000
Si        0.8334567      0.0352510      0.9147165       0.0000000
Si        0.6593475      0.2637132      0.0838326       0.0000000
Si        0.5699456      0.3634425      0.1116037       0.0000000
Si        0.5106314      0.6278937      0.1108436       0.0000000
Si        0.8504358      0.9266597      0.7879661       0.0000000
Si        0.7436039      0.1341036      0.9432685       0.0000000
Si        0.6331960      0.2235411      0.8744949       0.0000000
O         0.7066259      0.2141056      0.1592573       0.0000000
O         0.6069643      0.2957475      0.1283301       0.0000000
O         0.7634290      0.0676450      0.9066242       0.0000000
O         0.8685607      0.0131031      0.0248345       0.0000000
O         0.7964880      0.1303499      0.2477513       0.0000000
O         0.8659278      0.9601592      0.6980863       0.0000000
O         0.7460234      0.1303975      0.0560422       0.0000000
O         0.5372173      0.3703949      0.1961499       0.0000000
O         0.5630450      0.2209815      0.7911133       0.0000000
O         0.8179802      0.9755235      0.8438350       0.0000000
O         0.8805392      0.0818016      0.8799907       0.0000000
O         0.4675635      0.5767757      0.1456186       0.0000000
O         0.5150549      0.3645875      0.0063370       0.0000000
O         0.4476387      0.4572086      0.1709076       0.0000000
O         0.6724504      0.1581406      0.8741850       0.0000000
O         0.6228647      0.2306671      0.9802755       0.0000000
O         0.5065457      0.6932786      0.1633068       0.0000000
O         0.6726224      0.2827704      0.8526149       0.0000000
O         0.7028174      0.3180027      0.0597305       0.0000000
O         0.5847241      0.6038869      0.1371716       0.0000000
Si        0.4999083      0.7364178      0.2508438       0.0000000
Si        0.5001742      0.4153971      0.2506591       0.0000000
Si        0.5880359      0.5240855      0.3658799       0.0000000
Si        0.2303641      0.1741551      0.3483316       0.0000000
Si        0.1667931      0.0357181      0.5883861       0.0000000
Si        0.3413859      0.2631870      0.4170757       0.0000000
Si        0.4310104      0.3624908      0.3893538       0.0000000
Si        0.4903165      0.6282647      0.3906602       0.0000000
Si        0.1497823      0.9271739      0.7150260       0.0000000
Si        0.2564625      0.1340739      0.5577379       0.0000000
Si        0.3674730      0.2228663      0.6262634       0.0000000
O         0.2934464      0.2140798      0.3414821       0.0000000
O         0.3940704      0.2947222      0.3726038       0.0000000
O         0.2366794      0.0676282      0.5944673       0.0000000
O         0.1306833      0.0129759      0.4788658       0.0000000
O         0.2029951      0.1307442      0.2530539       0.0000000
O         0.1352068      0.9588271      0.8069661       0.0000000
O         0.2541538      0.1304476      0.4449936       0.0000000
O         0.4651239      0.3689924      0.3062652       0.0000000
O         0.4376611      0.2199605      0.7095976       0.0000000
O         0.1826635      0.9766532      0.6606578       0.0000000
O         0.1204392      0.0828680      0.6235651       0.0000000
O         0.5364156      0.5802759      0.3561670       0.0000000
O         0.4847750      0.3642355      0.4954526       0.0000000
O         0.5503764      0.4594471      0.3297447       0.0000000
O         0.3276760      0.1578751      0.6268984       0.0000000
O         0.3775757      0.2296059      0.5202872       0.0000000
O         0.4918613      0.6945577      0.3389240       0.0000000
O         0.3285255      0.2824929      0.6480356       0.0000000
O         0.2987267      0.3180975      0.4416271       0.0000000
O         0.4173005      0.6012267      0.3631447       0.0000000
Si        0.4129820      0.4794082      0.6335886       0.0000000
Si        0.7697014      0.8284546      0.6527752       0.0000000
Si        0.8334566      0.9672264      0.4147167       0.0000000
Si        0.6593474      0.7387643      0.5838324       0.0000000
Si        0.5699456      0.6390349      0.6116037       0.0000000
Si        0.5106314      0.3745836      0.6108437       0.0000000
Si        0.8504359      0.0758176      0.2879662       0.0000000
Si        0.7436038      0.8683739      0.4432684       0.0000000
Si        0.6331960      0.7789363      0.3744948       0.0000000
O         0.7066258      0.7883719      0.6592572       0.0000000
O         0.6069642      0.7067300      0.6283300       0.0000000
O         0.7634289      0.9348325      0.4066242       0.0000000
O         0.8685606      0.9893742      0.5248346       0.0000000
O         0.7964876      0.8721277      0.7477512       0.0000000
O         0.8659276      0.0423178      0.1980862       0.0000000
O         0.7460231      0.8720800      0.5560420       0.0000000
O         0.5372173      0.6320825      0.6961499       0.0000000
O         0.5630451      0.7814958      0.2911131       0.0000000
O         0.8179801      0.0269540      0.3438352       0.0000000
O         0.8805392      0.9206759      0.3799907       0.0000000
O         0.4675632      0.4257016      0.6456187       0.0000000
O         0.5150549      0.6378899      0.5063370       0.0000000
O         0.4476388      0.5452688      0.6709074       0.0000000
O         0.6724503      0.8443368      0.3741847       0.0000000
O         0.6228646      0.7718102      0.4802753       0.0000000
O         0.5065460      0.3091988      0.6633070       0.0000000
O         0.6726224      0.7197070      0.3526148       0.0000000
O         0.7028173      0.6844748      0.5597305       0.0000000
O         0.5847239      0.3985908      0.6371715       0.0000000
Si        0.4999084      0.2660595      0.7508439       0.0000000
Si        0.5001742      0.5870803      0.7506590       0.0000000
Si        0.5880359      0.4783919      0.8658799       0.0000000
Si        0.2303642      0.8283224      0.8483315       0.0000000
Si        0.1667932      0.9667594      0.0883858       0.0000000
Si        0.3413860      0.7392904      0.9170758       0.0000000
Si        0.4310104      0.6399866      0.8893538       0.0000000
Si        0.4903165      0.3742127      0.8906602       0.0000000
Si        0.1497823      0.0753034      0.2150260       0.0000000
Si        0.2564625      0.8684036      0.0577378       0.0000000
Si        0.3674729      0.7796111      0.1262635       0.0000000
O         0.2934465      0.7883976      0.8414820       0.0000000
O         0.3940705      0.7077552      0.8726039       0.0000000
O         0.2366795      0.9348493      0.0944671       0.0000000
O         0.1306833      0.9895015      0.9788655       0.0000000
O         0.2029953      0.8717332      0.7530538       0.0000000
O         0.1352073      0.0436496      0.3069662       0.0000000
O         0.2541539      0.8720298      0.9449935       0.0000000
O         0.4651238      0.6334850      0.8062651       0.0000000
O         0.4376610      0.7825170      0.2095977       0.0000000
O         0.1826636      0.0258245      0.1606574       0.0000000
O         0.1204393      0.9196095      0.1235650       0.0000000
O         0.5364158      0.4222014      0.8561670       0.0000000
O         0.4847751      0.6382418      0.9954525       0.0000000
O         0.5503762      0.5430302      0.8297448       0.0000000
O         0.3276760      0.8446023      0.1268984       0.0000000
O         0.3775757      0.7728715      0.0202872       0.0000000
O         0.4918611      0.3079197      0.8389239       0.0000000
O         0.3285255      0.7199845      0.1480356       0.0000000
O         0.2987267      0.6843798      0.9416271       0.0000000
O         0.4173006      0.4012509      0.8631447       0.0000000
Si        0.9127184      0.0240856      0.1353117       0.0000000
Si        0.2703901      0.6741551      0.1528599       0.0000000
Si        0.3339611      0.5357180      0.9128057       0.0000000
Si        0.1593683      0.7631871      0.0841157       0.0000000
Si        0.0697439      0.8624908      0.1118377       0.0000000
Si        0.0104377      0.1282648      0.1105314       0.0000000
Si        0.3509720      0.4271739      0.7861657       0.0000000
Si        0.2442917      0.6340739      0.9434536       0.0000000
Si        0.1332813      0.7228664      0.8749280       0.0000000
O         0.2073078      0.7140799      0.1597094       0.0000000
O         0.1066838      0.7947222      0.1285876       0.0000000
O         0.2640748      0.5676281      0.9067243       0.0000000
O         0.3700709      0.5129759      0.0223261       0.0000000
O         0.2977589      0.6307442      0.2481376       0.0000000
O         0.3655471      0.4588277      0.6942256       0.0000000
O         0.2466003      0.6304476      0.0561980       0.0000000
O         0.0356305      0.8689924      0.1949264       0.0000000
O         0.0630932      0.7199605      0.7915937       0.0000000
O         0.3180907      0.4766530      0.8405342       0.0000000
O         0.3803150      0.5828679      0.8776267       0.0000000
O         0.9643381      0.0802765      0.1450244       0.0000000
O         0.0159793      0.8642357      0.0057390       0.0000000
O         0.9503784      0.9594475      0.1714468       0.0000000
O         0.1730782      0.6578751      0.8742930       0.0000000
O         0.1231785      0.7296059      0.9809042       0.0000000
O         0.0088934      0.1945579      0.1622675       0.0000000
O         0.1722287      0.7824928      0.8531558       0.0000000
O         0.2020275      0.8180976      0.0595643       0.0000000
O         0.0834535      0.1012263      0.1380470       0.0000000
Si        0.0008460      0.2364180      0.2503475       0.0000000
Si        0.0005802      0.9153972      0.2505325       0.0000000
Si        0.0877723      0.0230691      0.3676031       0.0000000
Si        0.7310528      0.6740230      0.3484163       0.0000000
Si        0.6672977      0.5352511      0.5864751       0.0000000
Si        0.8414067      0.7637133      0.4173590       0.0000000
Si        0.9308086      0.8634427      0.3895876       0.0000000
Si        0.9901230      0.1278938      0.3903477       0.0000000
Si        0.6503184      0.4266599      0.7132255       0.0000000
Si        0.7571504      0.6341037      0.5579231       0.0000000
Si        0.8675582      0.7235413      0.6266967       0.0000000
O         0.7941284      0.7141057      0.3419343       0.0000000
O         0.8937899      0.7957476      0.3728614       0.0000000
O         0.7373253      0.5676451      0.5945674       0.0000000
O         0.6321936      0.5131032      0.4763572       0.0000000
O         0.7042665      0.6303498      0.2534403       0.0000000
O         0.6348267      0.4601594      0.8031057       0.0000000
O         0.7547310      0.6303976      0.4451495       0.0000000
O         0.9635367      0.8703951      0.3050413       0.0000000
O         0.9377092      0.7209819      0.7100785       0.0000000
O         0.6827742      0.4755236      0.6573567       0.0000000
O         0.6202151      0.5818017      0.6212010       0.0000000
O         0.0331910      0.0767757      0.3555728       0.0000000
O         0.9856994      0.8645875      0.4948543       0.0000000
O         0.0531157      0.9572085      0.3302844       0.0000000
O         0.8283039      0.6581408      0.6270067       0.0000000
O         0.8778896      0.7306674      0.5209162       0.0000000
O         0.9942085      0.1932786      0.3378844       0.0000000
O         0.8281317      0.7827706      0.6485766       0.0000000
O         0.7979369      0.8180028      0.4414610       0.0000000
O         0.9160304      0.1038868      0.3640199       0.0000000
Si        0.9127185      0.9783918      0.6353118       0.0000000
Si        0.2703901      0.3283224      0.6528600       0.0000000
Si        0.3339611      0.4667594      0.4128056       0.0000000
Si        0.1593683      0.2392905      0.5841158       0.0000000
Si        0.0697438      0.1399867      0.6118376       0.0000000
Si        0.0104378      0.8742127      0.6105311       0.0000000
Si        0.3509719      0.5753036      0.2861656       0.0000000
Si        0.2442917      0.3684036      0.4434536       0.0000000
Si        0.1332813      0.2796112      0.3749281       0.0000000
O         0.2073078      0.2883976      0.6597095       0.0000000
O         0.1066838      0.2077554      0.6285877       0.0000000
O         0.2640748      0.4348493      0.4067243       0.0000000
O         0.3700709      0.4895015      0.5223260       0.0000000
O         0.2977590      0.3717332      0.7481377       0.0000000
O         0.3655472      0.5436499      0.1942256       0.0000000
O         0.2466004      0.3720299      0.5561980       0.0000000
O         0.0356302      0.1334852      0.6949260       0.0000000
O         0.0630932      0.2825171      0.2915939       0.0000000
O         0.3180907      0.5258244      0.3405341       0.0000000
O         0.3803151      0.4196095      0.3776266       0.0000000
O         0.9643386      0.9222013      0.6450244       0.0000000
O         0.0159793      0.1382419      0.5057388       0.0000000
O         0.9503782      0.0430301      0.6714470       0.0000000
O         0.1730782      0.3446024      0.3742931       0.0000000
O         0.1231786      0.2728716      0.4809043       0.0000000
O         0.0088932      0.8079196      0.6622673       0.0000000
O         0.1722287      0.2199847      0.3531559       0.0000000
O         0.2020275      0.1843799      0.5595645       0.0000000
O         0.0834538      0.9012508      0.6380466       0.0000000
Si        0.0008460      0.7660596      0.7503476       0.0000000
Si        0.0005802      0.0870804      0.7505324       0.0000000
Si        0.0877721      0.9794084      0.8676029       0.0000000
Si        0.7310527      0.3284545      0.8484162       0.0000000
Si        0.6672976      0.4672264      0.0864751       0.0000000
Si        0.8414067      0.2387642      0.9173589       0.0000000
Si        0.9308087      0.1390349      0.8895878       0.0000000
Si        0.9901229      0.8745837      0.8903479       0.0000000
Si        0.6503185      0.5758176      0.2132255       0.0000000
Si        0.7571504      0.3683738      0.0579229       0.0000000
Si        0.8675582      0.2789363      0.1266966       0.0000000
O         0.7941284      0.2883718      0.8419341       0.0000000
O         0.8937900      0.2067299      0.8728614       0.0000000
O         0.7373253      0.4348324      0.0945673       0.0000000
O         0.6321936      0.4893743      0.9763572       0.0000000
O         0.7042663      0.3721275      0.7534401       0.0000000
O         0.6348267      0.5423181      0.3031056       0.0000000
O         0.7547309      0.3720799      0.9451493       0.0000000
O         0.9635370      0.1320824      0.8050416       0.0000000
O         0.9377092      0.2814959      0.2100782       0.0000000
O         0.6827742      0.5269538      0.1573568       0.0000000
O         0.6202151      0.4206758      0.1212010       0.0000000
O         0.0331902      0.9257024      0.8555730       0.0000000
O         0.9856994      0.1378899      0.9948545       0.0000000
O         0.0531160      0.0452691      0.8302839       0.0000000
O         0.8283039      0.3443368      0.1270065       0.0000000
O         0.8778896      0.2718102      0.0209160       0.0000000
O         0.9942091      0.8091992      0.8378845       0.0000000
O         0.8281319      0.2197070      0.1485766       0.0000000
O         0.7979369      0.1844747      0.9414609       0.0000000
O         0.9160300      0.8985900      0.8640200       0.0000000
space
 1
supercell 1 1 1
species
O  core  O  core
O  shel  O  shel
Si core  Si core
library catlow nodump
output cif ReferenceDataBase/ZEO-3_opt
dump every 1 ReferenceDataBase/ZEO-3.grs
