opti conv nosymm shellonly
name     ReferenceDataBase/ITW
switch_min rfo gnorm 0.08
cuts 1.1
stepmx opt 0.1
switch_stepmx 0.3 gnorm 0.005
maxcyc 500
cell
 10.45000  15.02800  17.90800  90.00000 105.64000  90.00000
fractional
O         0.5000000      0.2266000      0.0000000       0.0000000
O         0.3094000      0.1641000      0.3857500       0.0000000
O         0.3467000      0.3367000      0.4005500       0.0000000
O         0.2500000      0.2500000      0.0000000       0.0000000
O         0.4367000      0.3895000      0.1343000       0.0000000
O         0.3423000      0.3661000      0.2549000       0.0000000
O         0.2581000      0.5000000      0.1598000       0.0000000
O         0.3632000      0.5000000      0.3517500       0.0000000
Si        0.3516000      0.2445000      0.4469500       0.0000000
Si        0.3067000      0.3979000      0.1658500       0.0000000
Si        0.4039000      0.3979000      0.3431500       0.0000000
O         0.6906000      0.1641000      0.1142500       0.0000000
O         0.6533000      0.3367000      0.0994500       0.0000000
O         0.7500000      0.2500000      0.0000000       0.0000000
O         0.5633000      0.3895000      0.3657000       0.0000000
O         0.6577000      0.3661000      0.2451000       0.0000000
O         0.7419000      0.5000000      0.3402000       0.0000000
O         0.6368000      0.5000000      0.1482500       0.0000000
Si        0.6484000      0.2445000      0.0530500       0.0000000
Si        0.6933000      0.3979000      0.3341500       0.0000000
Si        0.5961000      0.3979000      0.1568500       0.0000000
O         0.5000000      0.7734000      0.0000000       0.0000000
O         0.6906000      0.8359000      0.1142500       0.0000000
O         0.6533000      0.6633000      0.0994500       0.0000000
O         0.7500000      0.7500000      0.0000000       0.0000000
O         0.5633000      0.6105000      0.3657000       0.0000000
O         0.6577000      0.6339000      0.2451000       0.0000000
Si        0.6484000      0.7555000      0.0530500       0.0000000
Si        0.6933000      0.6021000      0.3341500       0.0000000
Si        0.5961000      0.6021000      0.1568500       0.0000000
O         0.3094000      0.8359000      0.3857500       0.0000000
O         0.3467000      0.6633000      0.4005500       0.0000000
O         0.2500000      0.7500000      0.0000000       0.0000000
O         0.4367000      0.6105000      0.1343000       0.0000000
O         0.3423000      0.6339000      0.2549000       0.0000000
Si        0.3516000      0.7555000      0.4469500       0.0000000
Si        0.3067000      0.6021000      0.1658500       0.0000000
Si        0.4039000      0.6021000      0.3431500       0.0000000
O         0.0000000      0.7266000      0.0000000       0.0000000
O         0.8094000      0.6641000      0.3857500       0.0000000
O         0.8467000      0.8367000      0.4005500       0.0000000
O         0.9367000      0.8895000      0.1343000       0.0000000
O         0.8423000      0.8661000      0.2549000       0.0000000
O         0.7581000      0.0000000      0.1598000       0.0000000
O         0.8632000      0.0000000      0.3517500       0.0000000
Si        0.8516000      0.7445000      0.4469500       0.0000000
Si        0.8067000      0.8979000      0.1658500       0.0000000
Si        0.9039000      0.8979000      0.3431500       0.0000000
O         0.1906000      0.6641000      0.1142500       0.0000000
O         0.1533000      0.8367000      0.0994500       0.0000000
O         0.0633000      0.8895000      0.3657000       0.0000000
O         0.1577000      0.8661000      0.2451000       0.0000000
O         0.2419000      0.0000000      0.3402000       0.0000000
O         0.1368000      0.0000000      0.1482500       0.0000000
Si        0.1484000      0.7445000      0.0530500       0.0000000
Si        0.1933000      0.8979000      0.3341500       0.0000000
Si        0.0961000      0.8979000      0.1568500       0.0000000
O         0.0000000      0.2734000      0.0000000       0.0000000
O         0.1906000      0.3359000      0.1142500       0.0000000
O         0.1533000      0.1633000      0.0994500       0.0000000
O         0.0633000      0.1105000      0.3657000       0.0000000
O         0.1577000      0.1339000      0.2451000       0.0000000
Si        0.1484000      0.2555000      0.0530500       0.0000000
Si        0.1933000      0.1021000      0.3341500       0.0000000
Si        0.0961000      0.1021000      0.1568500       0.0000000
O         0.8094000      0.3359000      0.3857500       0.0000000
O         0.8467000      0.1633000      0.4005500       0.0000000
O         0.9367000      0.1105000      0.1343000       0.0000000
O         0.8423000      0.1339000      0.2549000       0.0000000
Si        0.8516000      0.2555000      0.4469500       0.0000000
Si        0.8067000      0.1021000      0.1658500       0.0000000
Si        0.9039000      0.1021000      0.3431500       0.0000000
O         0.5000000      0.2266000      0.5000000       0.0000000
O         0.3094000      0.1641000      0.8857500       0.0000000
O         0.3467000      0.3367000      0.9005500       0.0000000
O         0.2500000      0.2500000      0.5000000       0.0000000
O         0.4367000      0.3895000      0.6343000       0.0000000
O         0.3423000      0.3661000      0.7549000       0.0000000
O         0.2581000      0.5000000      0.6598000       0.0000000
O         0.3632000      0.5000000      0.8517500       0.0000000
Si        0.3516000      0.2445000      0.9469500       0.0000000
Si        0.3067000      0.3979000      0.6658500       0.0000000
Si        0.4039000      0.3979000      0.8431500       0.0000000
O         0.6906000      0.1641000      0.6142500       0.0000000
O         0.6533000      0.3367000      0.5994500       0.0000000
O         0.7500000      0.2500000      0.5000000       0.0000000
O         0.5633000      0.3895000      0.8657000       0.0000000
O         0.6577000      0.3661000      0.7451000       0.0000000
O         0.7419000      0.5000000      0.8402000       0.0000000
O         0.6368000      0.5000000      0.6482500       0.0000000
Si        0.6484000      0.2445000      0.5530500       0.0000000
Si        0.6933000      0.3979000      0.8341500       0.0000000
Si        0.5961000      0.3979000      0.6568500       0.0000000
O         0.5000000      0.7734000      0.5000000       0.0000000
O         0.6906000      0.8359000      0.6142500       0.0000000
O         0.6533000      0.6633000      0.5994500       0.0000000
O         0.7500000      0.7500000      0.5000000       0.0000000
O         0.5633000      0.6105000      0.8657000       0.0000000
O         0.6577000      0.6339000      0.7451000       0.0000000
Si        0.6484000      0.7555000      0.5530500       0.0000000
Si        0.6933000      0.6021000      0.8341500       0.0000000
Si        0.5961000      0.6021000      0.6568500       0.0000000
O         0.3094000      0.8359000      0.8857500       0.0000000
O         0.3467000      0.6633000      0.9005500       0.0000000
O         0.2500000      0.7500000      0.5000000       0.0000000
O         0.4367000      0.6105000      0.6343000       0.0000000
O         0.3423000      0.6339000      0.7549000       0.0000000
Si        0.3516000      0.7555000      0.9469500       0.0000000
Si        0.3067000      0.6021000      0.6658500       0.0000000
Si        0.4039000      0.6021000      0.8431500       0.0000000
O         0.0000000      0.7266000      0.5000000       0.0000000
O         0.8094000      0.6641000      0.8857500       0.0000000
O         0.8467000      0.8367000      0.9005500       0.0000000
O         0.9367000      0.8895000      0.6343000       0.0000000
O         0.8423000      0.8661000      0.7549000       0.0000000
O         0.7581000      0.0000000      0.6598000       0.0000000
O         0.8632000      0.0000000      0.8517500       0.0000000
Si        0.8516000      0.7445000      0.9469500       0.0000000
Si        0.8067000      0.8979000      0.6658500       0.0000000
Si        0.9039000      0.8979000      0.8431500       0.0000000
O         0.1906000      0.6641000      0.6142500       0.0000000
O         0.1533000      0.8367000      0.5994500       0.0000000
O         0.0633000      0.8895000      0.8657000       0.0000000
O         0.1577000      0.8661000      0.7451000       0.0000000
O         0.2419000      0.0000000      0.8402000       0.0000000
O         0.1368000      0.0000000      0.6482500       0.0000000
Si        0.1484000      0.7445000      0.5530500       0.0000000
Si        0.1933000      0.8979000      0.8341500       0.0000000
Si        0.0961000      0.8979000      0.6568500       0.0000000
O         0.0000000      0.2734000      0.5000000       0.0000000
O         0.1906000      0.3359000      0.6142500       0.0000000
O         0.1533000      0.1633000      0.5994500       0.0000000
O         0.0633000      0.1105000      0.8657000       0.0000000
O         0.1577000      0.1339000      0.7451000       0.0000000
Si        0.1484000      0.2555000      0.5530500       0.0000000
Si        0.1933000      0.1021000      0.8341500       0.0000000
Si        0.0961000      0.1021000      0.6568500       0.0000000
O         0.8094000      0.3359000      0.8857500       0.0000000
O         0.8467000      0.1633000      0.9005500       0.0000000
O         0.9367000      0.1105000      0.6343000       0.0000000
O         0.8423000      0.1339000      0.7549000       0.0000000
Si        0.8516000      0.2555000      0.9469500       0.0000000
Si        0.8067000      0.1021000      0.6658500       0.0000000
Si        0.9039000      0.1021000      0.8431500       0.0000000
space
 1
supercell 1 1 1
species
O  core  O  core
O  shel  O  shel
Si core  Si core
library catlow nodump
output cif ReferenceDataBase/ITW_opt
dump every 1 ReferenceDataBase/ITW.grs
