opti conv nosymm shellonly
name     ReferenceDataBase/SOD
switch_min rfo gnorm 0.08
cuts 1.1
stepmx opt 0.1
switch_stepmx 0.3 gnorm 0.005
maxcyc 500
cell
 17.93000  17.93000  17.93000  90.00000  90.00000  90.00000
fractional
O         0.0733500      0.2500000      0.4266500       0.0000000
Si        0.1250000      0.2500000      0.0000000       0.0000000
O         0.2500000      0.0733500      0.4266500       0.0000000
Si        0.2500000      0.1250000      0.0000000       0.0000000
O         0.4266500      0.2500000      0.4266500       0.0000000
Si        0.3750000      0.2500000      0.0000000       0.0000000
O         0.2500000      0.4266500      0.4266500       0.0000000
Si        0.2500000      0.3750000      0.0000000       0.0000000
O         0.0733500      0.2500000      0.0733500       0.0000000
O         0.2500000      0.0733500      0.0733500       0.0000000
O         0.4266500      0.2500000      0.0733500       0.0000000
O         0.2500000      0.4266500      0.0733500       0.0000000
O         0.4266500      0.0733500      0.2500000       0.0000000
Si        0.0000000      0.1250000      0.2500000       0.0000000
O         0.4266500      0.4266500      0.2500000       0.0000000
Si        0.3750000      0.0000000      0.2500000       0.0000000
O         0.0733500      0.4266500      0.2500000       0.0000000
Si        0.0000000      0.3750000      0.2500000       0.0000000
O         0.0733500      0.0733500      0.2500000       0.0000000
Si        0.1250000      0.0000000      0.2500000       0.0000000
Si        0.2500000      0.0000000      0.1250000       0.0000000
Si        0.2500000      0.0000000      0.3750000       0.0000000
Si        0.0000000      0.2500000      0.3750000       0.0000000
Si        0.0000000      0.2500000      0.1250000       0.0000000
O         0.3233500      0.0000000      0.1766500       0.0000000
O         0.0000000      0.3233500      0.1766500       0.0000000
O         0.1766500      0.0000000      0.1766500       0.0000000
O         0.0000000      0.1766500      0.1766500       0.0000000
O         0.3233500      0.0000000      0.3233500       0.0000000
O         0.0000000      0.3233500      0.3233500       0.0000000
O         0.1766500      0.0000000      0.3233500       0.0000000
O         0.0000000      0.1766500      0.3233500       0.0000000
O         0.1766500      0.3233500      0.0000000       0.0000000
O         0.1766500      0.1766500      0.0000000       0.0000000
O         0.3233500      0.1766500      0.0000000       0.0000000
O         0.3233500      0.3233500      0.0000000       0.0000000
O         0.0733500      0.2500000      0.9266500       0.0000000
Si        0.1250000      0.2500000      0.5000000       0.0000000
O         0.2500000      0.0733500      0.9266500       0.0000000
Si        0.2500000      0.1250000      0.5000000       0.0000000
O         0.4266500      0.2500000      0.9266500       0.0000000
Si        0.3750000      0.2500000      0.5000000       0.0000000
O         0.2500000      0.4266500      0.9266500       0.0000000
Si        0.2500000      0.3750000      0.5000000       0.0000000
O         0.0733500      0.2500000      0.5733500       0.0000000
O         0.2500000      0.0733500      0.5733500       0.0000000
O         0.4266500      0.2500000      0.5733500       0.0000000
O         0.2500000      0.4266500      0.5733500       0.0000000
O         0.4266500      0.0733500      0.7500000       0.0000000
Si        0.0000000      0.1250000      0.7500000       0.0000000
O         0.4266500      0.4266500      0.7500000       0.0000000
Si        0.3750000      0.0000000      0.7500000       0.0000000
O         0.0733500      0.4266500      0.7500000       0.0000000
Si        0.0000000      0.3750000      0.7500000       0.0000000
O         0.0733500      0.0733500      0.7500000       0.0000000
Si        0.1250000      0.0000000      0.7500000       0.0000000
Si        0.2500000      0.0000000      0.6250000       0.0000000
Si        0.2500000      0.0000000      0.8750000       0.0000000
Si        0.0000000      0.2500000      0.8750000       0.0000000
Si        0.0000000      0.2500000      0.6250000       0.0000000
O         0.3233500      0.0000000      0.6766500       0.0000000
O         0.0000000      0.3233500      0.6766500       0.0000000
O         0.1766500      0.0000000      0.6766500       0.0000000
O         0.0000000      0.1766500      0.6766500       0.0000000
O         0.3233500      0.0000000      0.8233500       0.0000000
O         0.0000000      0.3233500      0.8233500       0.0000000
O         0.1766500      0.0000000      0.8233500       0.0000000
O         0.0000000      0.1766500      0.8233500       0.0000000
O         0.1766500      0.3233500      0.5000000       0.0000000
O         0.1766500      0.1766500      0.5000000       0.0000000
O         0.3233500      0.1766500      0.5000000       0.0000000
O         0.3233500      0.3233500      0.5000000       0.0000000
O         0.0733500      0.7500000      0.4266500       0.0000000
Si        0.1250000      0.7500000      0.0000000       0.0000000
O         0.2500000      0.5733500      0.4266500       0.0000000
Si        0.2500000      0.6250000      0.0000000       0.0000000
O         0.4266500      0.7500000      0.4266500       0.0000000
Si        0.3750000      0.7500000      0.0000000       0.0000000
O         0.2500000      0.9266500      0.4266500       0.0000000
Si        0.2500000      0.8750000      0.0000000       0.0000000
O         0.0733500      0.7500000      0.0733500       0.0000000
O         0.2500000      0.5733500      0.0733500       0.0000000
O         0.4266500      0.7500000      0.0733500       0.0000000
O         0.2500000      0.9266500      0.0733500       0.0000000
O         0.4266500      0.5733500      0.2500000       0.0000000
Si        0.0000000      0.6250000      0.2500000       0.0000000
O         0.4266500      0.9266500      0.2500000       0.0000000
Si        0.3750000      0.5000000      0.2500000       0.0000000
O         0.0733500      0.9266500      0.2500000       0.0000000
Si        0.0000000      0.8750000      0.2500000       0.0000000
O         0.0733500      0.5733500      0.2500000       0.0000000
Si        0.1250000      0.5000000      0.2500000       0.0000000
Si        0.2500000      0.5000000      0.1250000       0.0000000
Si        0.2500000      0.5000000      0.3750000       0.0000000
Si        0.0000000      0.7500000      0.3750000       0.0000000
Si        0.0000000      0.7500000      0.1250000       0.0000000
O         0.3233500      0.5000000      0.1766500       0.0000000
O         0.0000000      0.8233500      0.1766500       0.0000000
O         0.1766500      0.5000000      0.1766500       0.0000000
O         0.0000000      0.6766500      0.1766500       0.0000000
O         0.3233500      0.5000000      0.3233500       0.0000000
O         0.0000000      0.8233500      0.3233500       0.0000000
O         0.1766500      0.5000000      0.3233500       0.0000000
O         0.0000000      0.6766500      0.3233500       0.0000000
O         0.1766500      0.8233500      0.0000000       0.0000000
O         0.1766500      0.6766500      0.0000000       0.0000000
O         0.3233500      0.6766500      0.0000000       0.0000000
O         0.3233500      0.8233500      0.0000000       0.0000000
O         0.0733500      0.7500000      0.9266500       0.0000000
Si        0.1250000      0.7500000      0.5000000       0.0000000
O         0.2500000      0.5733500      0.9266500       0.0000000
Si        0.2500000      0.6250000      0.5000000       0.0000000
O         0.4266500      0.7500000      0.9266500       0.0000000
Si        0.3750000      0.7500000      0.5000000       0.0000000
O         0.2500000      0.9266500      0.9266500       0.0000000
Si        0.2500000      0.8750000      0.5000000       0.0000000
O         0.0733500      0.7500000      0.5733500       0.0000000
O         0.2500000      0.5733500      0.5733500       0.0000000
O         0.4266500      0.7500000      0.5733500       0.0000000
O         0.2500000      0.9266500      0.5733500       0.0000000
O         0.4266500      0.5733500      0.7500000       0.0000000
Si        0.0000000      0.6250000      0.7500000       0.0000000
O         0.4266500      0.9266500      0.7500000       0.0000000
Si        0.3750000      0.5000000      0.7500000       0.0000000
O         0.0733500      0.9266500      0.7500000       0.0000000
Si        0.0000000      0.8750000      0.7500000       0.0000000
O         0.0733500      0.5733500      0.7500000       0.0000000
Si        0.1250000      0.5000000      0.7500000       0.0000000
Si        0.2500000      0.5000000      0.6250000       0.0000000
Si        0.2500000      0.5000000      0.8750000       0.0000000
Si        0.0000000      0.7500000      0.8750000       0.0000000
Si        0.0000000      0.7500000      0.6250000       0.0000000
O         0.3233500      0.5000000      0.6766500       0.0000000
O         0.0000000      0.8233500      0.6766500       0.0000000
O         0.1766500      0.5000000      0.6766500       0.0000000
O         0.0000000      0.6766500      0.6766500       0.0000000
O         0.3233500      0.5000000      0.8233500       0.0000000
O         0.0000000      0.8233500      0.8233500       0.0000000
O         0.1766500      0.5000000      0.8233500       0.0000000
O         0.0000000      0.6766500      0.8233500       0.0000000
O         0.1766500      0.8233500      0.5000000       0.0000000
O         0.1766500      0.6766500      0.5000000       0.0000000
O         0.3233500      0.6766500      0.5000000       0.0000000
O         0.3233500      0.8233500      0.5000000       0.0000000
O         0.5733500      0.2500000      0.4266500       0.0000000
Si        0.6250000      0.2500000      0.0000000       0.0000000
O         0.7500000      0.0733500      0.4266500       0.0000000
Si        0.7500000      0.1250000      0.0000000       0.0000000
O         0.9266500      0.2500000      0.4266500       0.0000000
Si        0.8750000      0.2500000      0.0000000       0.0000000
O         0.7500000      0.4266500      0.4266500       0.0000000
Si        0.7500000      0.3750000      0.0000000       0.0000000
O         0.5733500      0.2500000      0.0733500       0.0000000
O         0.7500000      0.0733500      0.0733500       0.0000000
O         0.9266500      0.2500000      0.0733500       0.0000000
O         0.7500000      0.4266500      0.0733500       0.0000000
O         0.9266500      0.0733500      0.2500000       0.0000000
Si        0.5000000      0.1250000      0.2500000       0.0000000
O         0.9266500      0.4266500      0.2500000       0.0000000
Si        0.8750000      0.0000000      0.2500000       0.0000000
O         0.5733500      0.4266500      0.2500000       0.0000000
Si        0.5000000      0.3750000      0.2500000       0.0000000
O         0.5733500      0.0733500      0.2500000       0.0000000
Si        0.6250000      0.0000000      0.2500000       0.0000000
Si        0.7500000      0.0000000      0.1250000       0.0000000
Si        0.7500000      0.0000000      0.3750000       0.0000000
Si        0.5000000      0.2500000      0.3750000       0.0000000
Si        0.5000000      0.2500000      0.1250000       0.0000000
O         0.8233500      0.0000000      0.1766500       0.0000000
O         0.5000000      0.3233500      0.1766500       0.0000000
O         0.6766500      0.0000000      0.1766500       0.0000000
O         0.5000000      0.1766500      0.1766500       0.0000000
O         0.8233500      0.0000000      0.3233500       0.0000000
O         0.5000000      0.3233500      0.3233500       0.0000000
O         0.6766500      0.0000000      0.3233500       0.0000000
O         0.5000000      0.1766500      0.3233500       0.0000000
O         0.6766500      0.3233500      0.0000000       0.0000000
O         0.6766500      0.1766500      0.0000000       0.0000000
O         0.8233500      0.1766500      0.0000000       0.0000000
O         0.8233500      0.3233500      0.0000000       0.0000000
O         0.5733500      0.2500000      0.9266500       0.0000000
Si        0.6250000      0.2500000      0.5000000       0.0000000
O         0.7500000      0.0733500      0.9266500       0.0000000
Si        0.7500000      0.1250000      0.5000000       0.0000000
O         0.9266500      0.2500000      0.9266500       0.0000000
Si        0.8750000      0.2500000      0.5000000       0.0000000
O         0.7500000      0.4266500      0.9266500       0.0000000
Si        0.7500000      0.3750000      0.5000000       0.0000000
O         0.5733500      0.2500000      0.5733500       0.0000000
O         0.7500000      0.0733500      0.5733500       0.0000000
O         0.9266500      0.2500000      0.5733500       0.0000000
O         0.7500000      0.4266500      0.5733500       0.0000000
O         0.9266500      0.0733500      0.7500000       0.0000000
Si        0.5000000      0.1250000      0.7500000       0.0000000
O         0.9266500      0.4266500      0.7500000       0.0000000
Si        0.8750000      0.0000000      0.7500000       0.0000000
O         0.5733500      0.4266500      0.7500000       0.0000000
Si        0.5000000      0.3750000      0.7500000       0.0000000
O         0.5733500      0.0733500      0.7500000       0.0000000
Si        0.6250000      0.0000000      0.7500000       0.0000000
Si        0.7500000      0.0000000      0.6250000       0.0000000
Si        0.7500000      0.0000000      0.8750000       0.0000000
Si        0.5000000      0.2500000      0.8750000       0.0000000
Si        0.5000000      0.2500000      0.6250000       0.0000000
O         0.8233500      0.0000000      0.6766500       0.0000000
O         0.5000000      0.3233500      0.6766500       0.0000000
O         0.6766500      0.0000000      0.6766500       0.0000000
O         0.5000000      0.1766500      0.6766500       0.0000000
O         0.8233500      0.0000000      0.8233500       0.0000000
O         0.5000000      0.3233500      0.8233500       0.0000000
O         0.6766500      0.0000000      0.8233500       0.0000000
O         0.5000000      0.1766500      0.8233500       0.0000000
O         0.6766500      0.3233500      0.5000000       0.0000000
O         0.6766500      0.1766500      0.5000000       0.0000000
O         0.8233500      0.1766500      0.5000000       0.0000000
O         0.8233500      0.3233500      0.5000000       0.0000000
O         0.5733500      0.7500000      0.4266500       0.0000000
Si        0.6250000      0.7500000      0.0000000       0.0000000
O         0.7500000      0.5733500      0.4266500       0.0000000
Si        0.7500000      0.6250000      0.0000000       0.0000000
O         0.9266500      0.7500000      0.4266500       0.0000000
Si        0.8750000      0.7500000      0.0000000       0.0000000
O         0.7500000      0.9266500      0.4266500       0.0000000
Si        0.7500000      0.8750000      0.0000000       0.0000000
O         0.5733500      0.7500000      0.0733500       0.0000000
O         0.7500000      0.5733500      0.0733500       0.0000000
O         0.9266500      0.7500000      0.0733500       0.0000000
O         0.7500000      0.9266500      0.0733500       0.0000000
O         0.9266500      0.5733500      0.2500000       0.0000000
Si        0.5000000      0.6250000      0.2500000       0.0000000
O         0.9266500      0.9266500      0.2500000       0.0000000
Si        0.8750000      0.5000000      0.2500000       0.0000000
O         0.5733500      0.9266500      0.2500000       0.0000000
Si        0.5000000      0.8750000      0.2500000       0.0000000
O         0.5733500      0.5733500      0.2500000       0.0000000
Si        0.6250000      0.5000000      0.2500000       0.0000000
Si        0.7500000      0.5000000      0.1250000       0.0000000
Si        0.7500000      0.5000000      0.3750000       0.0000000
Si        0.5000000      0.7500000      0.3750000       0.0000000
Si        0.5000000      0.7500000      0.1250000       0.0000000
O         0.8233500      0.5000000      0.1766500       0.0000000
O         0.5000000      0.8233500      0.1766500       0.0000000
O         0.6766500      0.5000000      0.1766500       0.0000000
O         0.5000000      0.6766500      0.1766500       0.0000000
O         0.8233500      0.5000000      0.3233500       0.0000000
O         0.5000000      0.8233500      0.3233500       0.0000000
O         0.6766500      0.5000000      0.3233500       0.0000000
O         0.5000000      0.6766500      0.3233500       0.0000000
O         0.6766500      0.8233500      0.0000000       0.0000000
O         0.6766500      0.6766500      0.0000000       0.0000000
O         0.8233500      0.6766500      0.0000000       0.0000000
O         0.8233500      0.8233500      0.0000000       0.0000000
O         0.5733500      0.7500000      0.9266500       0.0000000
Si        0.6250000      0.7500000      0.5000000       0.0000000
O         0.7500000      0.5733500      0.9266500       0.0000000
Si        0.7500000      0.6250000      0.5000000       0.0000000
O         0.9266500      0.7500000      0.9266500       0.0000000
Si        0.8750000      0.7500000      0.5000000       0.0000000
O         0.7500000      0.9266500      0.9266500       0.0000000
Si        0.7500000      0.8750000      0.5000000       0.0000000
O         0.5733500      0.7500000      0.5733500       0.0000000
O         0.7500000      0.5733500      0.5733500       0.0000000
O         0.9266500      0.7500000      0.5733500       0.0000000
O         0.7500000      0.9266500      0.5733500       0.0000000
O         0.9266500      0.5733500      0.7500000       0.0000000
Si        0.5000000      0.6250000      0.7500000       0.0000000
O         0.9266500      0.9266500      0.7500000       0.0000000
Si        0.8750000      0.5000000      0.7500000       0.0000000
O         0.5733500      0.9266500      0.7500000       0.0000000
Si        0.5000000      0.8750000      0.7500000       0.0000000
O         0.5733500      0.5733500      0.7500000       0.0000000
Si        0.6250000      0.5000000      0.7500000       0.0000000
Si        0.7500000      0.5000000      0.6250000       0.0000000
Si        0.7500000      0.5000000      0.8750000       0.0000000
Si        0.5000000      0.7500000      0.8750000       0.0000000
Si        0.5000000      0.7500000      0.6250000       0.0000000
O         0.8233500      0.5000000      0.6766500       0.0000000
O         0.5000000      0.8233500      0.6766500       0.0000000
O         0.6766500      0.5000000      0.6766500       0.0000000
O         0.5000000      0.6766500      0.6766500       0.0000000
O         0.8233500      0.5000000      0.8233500       0.0000000
O         0.5000000      0.8233500      0.8233500       0.0000000
O         0.6766500      0.5000000      0.8233500       0.0000000
O         0.5000000      0.6766500      0.8233500       0.0000000
O         0.6766500      0.8233500      0.5000000       0.0000000
O         0.6766500      0.6766500      0.5000000       0.0000000
O         0.8233500      0.6766500      0.5000000       0.0000000
O         0.8233500      0.8233500      0.5000000       0.0000000
space
 1
supercell 1 1 1
species
O  core  O  core
O  shel  O  shel
Si core  Si core
library catlow nodump
output cif ReferenceDataBase/SOD_opt
dump every 1 ReferenceDataBase/SOD.grs
