opti conv nosymm shellonly
name     ReferenceDataBase/STW
switch_min rfo gnorm 0.08
cuts 1.1
stepmx opt 0.1
switch_stepmx 0.3 gnorm 0.005
maxcyc 500
cell
 11.88700  11.88700  29.91500  90.00000  90.00000 120.00000
fractional
O         0.9128000      0.0000000      0.0000000       0.0000000
O         0.3328000      0.5726000      0.3337000       0.0000000
O         0.1216000      0.2129000      0.9728000       0.0000000
O         0.9344000      0.0656000      0.9167000       0.0000000
O         0.8998000      0.2081000      0.9768000       0.0000000
O         0.6402000      0.3201000      0.0833000       0.0000000
O         0.3758000      0.3446000      0.9664000       0.0000000
O         0.7797000      0.3169000      0.0154000       0.0000000
O         0.7752000      0.5310000      0.0348000       0.0000000
O         0.2311000      0.3246000      0.8971000       0.0000000
O         0.5937000      0.5594000      0.9858000       0.0000000
O         0.5837000      0.4163000      0.9167000       0.0000000
Si        0.6917000      0.3748000      0.0338000       0.0000000
Si        0.5318000      0.4138000      0.9667000       0.0000000
Si        0.2997000      0.3942000      0.8508000       0.0000000
Si        0.2432000      0.3380000      0.9506000       0.0000000
Si        0.9670000      0.1221000      0.9666000       0.0000000
O         0.9128000      0.9128000      0.1666667       0.0000000
O         0.7602000      0.3328000      0.5003667       0.0000000
O         0.9087000      0.1216000      0.1394667       0.0000000
O         0.8688000      0.9344000      0.0833667       0.0000000
O         0.6917000      0.8998000      0.1434667       0.0000000
O         0.3201000      0.6402000      0.2499667       0.0000000
O         0.0312000      0.3758000      0.1330667       0.0000000
O         0.4628000      0.7797000      0.1820667       0.0000000
O         0.2442000      0.7752000      0.2014667       0.0000000
O         0.9065000      0.2311000      0.0637667       0.0000000
O         0.0343000      0.5937000      0.1524667       0.0000000
O         0.1674000      0.5837000      0.0833667       0.0000000
Si        0.3169000      0.6917000      0.2004667       0.0000000
Si        0.1180000      0.5318000      0.1333667       0.0000000
Si        0.9055000      0.2997000      0.0174667       0.0000000
Si        0.9052000      0.2432000      0.1172667       0.0000000
Si        0.8449000      0.9670000      0.1332667       0.0000000
O         0.0000000      0.9128000      0.3333333       0.0000000
O         0.4274000      0.7602000      0.6670333       0.0000000
O         0.7871000      0.9087000      0.3061333       0.0000000
O         0.9344000      0.8688000      0.2500333       0.0000000
O         0.7919000      0.6917000      0.3101333       0.0000000
O         0.6799000      0.3201000      0.4166333       0.0000000
O         0.6554000      0.0312000      0.2997333       0.0000000
O         0.6831000      0.4628000      0.3487333       0.0000000
O         0.4690000      0.2442000      0.3681333       0.0000000
O         0.6754000      0.9065000      0.2304333       0.0000000
O         0.4406000      0.0343000      0.3191333       0.0000000
O         0.5837000      0.1674000      0.2500333       0.0000000
Si        0.6252000      0.3169000      0.3671333       0.0000000
Si        0.5862000      0.1180000      0.3000333       0.0000000
Si        0.6058000      0.9055000      0.1841333       0.0000000
Si        0.6620000      0.9052000      0.2839333       0.0000000
Si        0.8779000      0.8449000      0.2999333       0.0000000
O         0.0872000      0.0000000      0.5000000       0.0000000
O         0.6672000      0.4274000      0.8337000       0.0000000
O         0.8784000      0.7871000      0.4728000       0.0000000
O         0.0656000      0.9344000      0.4167000       0.0000000
O         0.1002000      0.7919000      0.4768000       0.0000000
O         0.3598000      0.6799000      0.5833000       0.0000000
O         0.6242000      0.6554000      0.4664000       0.0000000
O         0.2203000      0.6831000      0.5154000       0.0000000
O         0.2248000      0.4690000      0.5348000       0.0000000
O         0.7689000      0.6754000      0.3971000       0.0000000
O         0.4063000      0.4406000      0.4858000       0.0000000
O         0.4163000      0.5837000      0.4167000       0.0000000
Si        0.3083000      0.6252000      0.5338000       0.0000000
Si        0.4682000      0.5862000      0.4667000       0.0000000
Si        0.7003000      0.6058000      0.3508000       0.0000000
Si        0.7568000      0.6620000      0.4506000       0.0000000
Si        0.0330000      0.8779000      0.4666000       0.0000000
O         0.0872000      0.0872000      0.6666667       0.0000000
O         0.2398000      0.6672000      0.0003667       0.0000000
O         0.0913000      0.8784000      0.6394666       0.0000000
O         0.1312000      0.0656000      0.5833667       0.0000000
O         0.3083000      0.1002000      0.6434667       0.0000000
O         0.6799000      0.3598000      0.7499667       0.0000000
O         0.9688000      0.6242000      0.6330667       0.0000000
O         0.5372000      0.2203000      0.6820667       0.0000000
O         0.7558000      0.2248000      0.7014667       0.0000000
O         0.0935000      0.7689000      0.5637667       0.0000000
O         0.9657000      0.4063000      0.6524667       0.0000000
O         0.8326000      0.4163000      0.5833667       0.0000000
Si        0.6831000      0.3083000      0.7004667       0.0000000
Si        0.8820000      0.4682000      0.6333666       0.0000000
Si        0.0945000      0.7003000      0.5174667       0.0000000
Si        0.0948000      0.7568000      0.6172667       0.0000000
Si        0.1551000      0.0330000      0.6332667       0.0000000
O         0.0000000      0.0872000      0.8333333       0.0000000
O         0.5726000      0.2398000      0.1670333       0.0000000
O         0.2129000      0.0913000      0.8061333       0.0000000
O         0.0656000      0.1312000      0.7500333       0.0000000
O         0.2081000      0.3083000      0.8101333       0.0000000
O         0.3201000      0.6799000      0.9166333       0.0000000
O         0.3446000      0.9688000      0.7997333       0.0000000
O         0.3169000      0.5372000      0.8487333       0.0000000
O         0.5310000      0.7558000      0.8681333       0.0000000
O         0.3246000      0.0935000      0.7304333       0.0000000
O         0.5594000      0.9657000      0.8191333       0.0000000
O         0.4163000      0.8326000      0.7500333       0.0000000
Si        0.3748000      0.6831000      0.8671333       0.0000000
Si        0.4138000      0.8820000      0.8000333       0.0000000
Si        0.3942000      0.0945000      0.6841334       0.0000000
Si        0.3380000      0.0948000      0.7839333       0.0000000
Si        0.1221000      0.1551000      0.7999333       0.0000000
O         0.4274000      0.6672000      0.4996333       0.0000000
O         0.7871000      0.8784000      0.8605334       0.0000000
O         0.7919000      0.1002000      0.8565333       0.0000000
O         0.6554000      0.6242000      0.8669333       0.0000000
O         0.6831000      0.2203000      0.8179333       0.0000000
O         0.4690000      0.2248000      0.7985333       0.0000000
O         0.6754000      0.7689000      0.9362333       0.0000000
O         0.4406000      0.4063000      0.8475333       0.0000000
Si        0.6252000      0.3083000      0.7995333       0.0000000
Si        0.5862000      0.4682000      0.8666334       0.0000000
Si        0.6058000      0.7003000      0.9825333       0.0000000
Si        0.6620000      0.7568000      0.8827333       0.0000000
Si        0.8779000      0.0330000      0.8667333       0.0000000
O         0.7602000      0.4274000      0.6663000       0.0000000
O         0.9087000      0.7871000      0.0272000       0.0000000
O         0.6917000      0.7919000      0.0232000       0.0000000
O         0.0312000      0.6554000      0.0336000       0.0000000
O         0.4628000      0.6831000      0.9846000       0.0000000
O         0.2442000      0.4690000      0.9652000       0.0000000
O         0.9065000      0.6754000      0.1029000       0.0000000
O         0.0343000      0.4406000      0.0142000       0.0000000
Si        0.3169000      0.6252000      0.9662000       0.0000000
Si        0.1180000      0.5862000      0.0333000       0.0000000
Si        0.9055000      0.6058000      0.1492000       0.0000000
Si        0.9052000      0.6620000      0.0494000       0.0000000
Si        0.8449000      0.8779000      0.0334000       0.0000000
O         0.3328000      0.7602000      0.8329667       0.0000000
O         0.1216000      0.9087000      0.1938667       0.0000000
O         0.8998000      0.6917000      0.1898667       0.0000000
O         0.3758000      0.0312000      0.2002667       0.0000000
O         0.7797000      0.4628000      0.1512667       0.0000000
O         0.7752000      0.2442000      0.1318667       0.0000000
O         0.2311000      0.9065000      0.2695667       0.0000000
O         0.5937000      0.0343000      0.1808667       0.0000000
Si        0.6917000      0.3169000      0.1328667       0.0000000
Si        0.5318000      0.1180000      0.1999667       0.0000000
Si        0.2997000      0.9055000      0.3158667       0.0000000
Si        0.2432000      0.9052000      0.2160667       0.0000000
Si        0.9670000      0.8449000      0.2000667       0.0000000
O         0.5726000      0.3328000      0.9996333       0.0000000
O         0.2129000      0.1216000      0.3605333       0.0000000
O         0.2081000      0.8998000      0.3565333       0.0000000
O         0.3446000      0.3758000      0.3669333       0.0000000
O         0.3169000      0.7797000      0.3179333       0.0000000
O         0.5310000      0.7752000      0.2985333       0.0000000
O         0.3246000      0.2311000      0.4362333       0.0000000
O         0.5594000      0.5937000      0.3475333       0.0000000
Si        0.3748000      0.6917000      0.2995333       0.0000000
Si        0.4138000      0.5318000      0.3666333       0.0000000
Si        0.3942000      0.2997000      0.4825333       0.0000000
Si        0.3380000      0.2432000      0.3827333       0.0000000
Si        0.1221000      0.9670000      0.3667333       0.0000000
O         0.2398000      0.5726000      0.1663000       0.0000000
O         0.0913000      0.2129000      0.5272000       0.0000000
O         0.3083000      0.2081000      0.5232000       0.0000000
O         0.9688000      0.3446000      0.5336000       0.0000000
O         0.5372000      0.3169000      0.4846000       0.0000000
O         0.7558000      0.5310000      0.4652000       0.0000000
O         0.0935000      0.3246000      0.6029000       0.0000000
O         0.9657000      0.5594000      0.5142000       0.0000000
Si        0.6831000      0.3748000      0.4662000       0.0000000
Si        0.8820000      0.4138000      0.5333000       0.0000000
Si        0.0945000      0.3942000      0.6492000       0.0000000
Si        0.0948000      0.3380000      0.5494000       0.0000000
Si        0.1551000      0.1221000      0.5334000       0.0000000
O         0.6672000      0.2398000      0.3329667       0.0000000
O         0.8784000      0.0913000      0.6938667       0.0000000
O         0.1002000      0.3083000      0.6898667       0.0000000
O         0.6242000      0.9688000      0.7002667       0.0000000
O         0.2203000      0.5372000      0.6512667       0.0000000
O         0.2248000      0.7558000      0.6318667       0.0000000
O         0.7689000      0.0935000      0.7695667       0.0000000
O         0.4063000      0.9657000      0.6808667       0.0000000
Si        0.3083000      0.6831000      0.6328667       0.0000000
Si        0.4682000      0.8820000      0.6999667       0.0000000
Si        0.7003000      0.0945000      0.8158666       0.0000000
Si        0.7568000      0.0948000      0.7160667       0.0000000
Si        0.0330000      0.1551000      0.7000667       0.0000000
space
 1
supercell 1 1 1
species
O  core  O  core
O  shel  O  shel
Si core  Si core
library catlow nodump
output cif ReferenceDataBase/STW_opt
dump every 1 ReferenceDataBase/STW.grs
