opti conv nosymm shellonly
name     ReferenceDataBase/FAU_posit_00.00GPa
switch_min rfo gnorm 0.08
cuts 1.1
stepmx opt 0.1
switch_stepmx 0.3 gnorm 0.005
maxcyc 500
cell
 17.16960  17.16960  17.16960  59.99970  59.99980  59.99970
fractional
Si        0.8388085      0.4838156      0.6608126       0.0000000
Si        0.4838303      0.8387980      0.0165537       0.0000000
Si        0.6608132      0.0165521      0.8388113       0.0000000
Si        0.0165576      0.6608095      0.4838184       0.0000000
Si        0.6608129      0.8388025      0.4838193       0.0000000
Si        0.0165535      0.4838245      0.8388057       0.0000000
Si        0.8388126      0.6608070      0.0165599       0.0000000
Si        0.4838208      0.0165498      0.6608162       0.0000000
Si        0.4838192      0.6608065      0.8388094       0.0000000
Si        0.8388055      0.0165457      0.4838305       0.0000000
Si        0.0165602      0.8388042      0.6608133       0.0000000
Si        0.6608153      0.4838148      0.0165573       0.0000000
Si        0.4111953      0.7661644      0.2334494       0.0000000
Si        0.7661811      0.4111848      0.5891888       0.0000000
Si        0.5891841      0.2334378      0.7661812       0.0000000
Si        0.2334428      0.5891792      0.4111903       0.0000000
Si        0.5891873      0.4111833      0.2334425       0.0000000
Si        0.2334452      0.7661744      0.5891827       0.0000000
Si        0.4111927      0.5891809      0.7661797       0.0000000
Si        0.7661716      0.2334422      0.4111962       0.0000000
Si        0.7661805      0.5891759      0.2334451       0.0000000
Si        0.4111905      0.2334364      0.5891868       0.0000000
Si        0.2334484      0.4111885      0.7661712       0.0000000
Si        0.5891869      0.7661743      0.4111913       0.0000000
Si        0.4111913      0.7661743      0.5891868       0.0000000
Si        0.7661711      0.4111885      0.2334485       0.0000000
Si        0.5891868      0.2334363      0.4111906       0.0000000
Si        0.2334451      0.5891759      0.7661805       0.0000000
Si        0.5891888      0.4111848      0.7661811       0.0000000
Si        0.2334494      0.7661644      0.4111953       0.0000000
Si        0.4111904      0.5891792      0.2334429       0.0000000
Si        0.7661812      0.2334378      0.5891841       0.0000000
Si        0.7661797      0.5891809      0.4111928       0.0000000
Si        0.4111961      0.2334422      0.7661717       0.0000000
Si        0.2334424      0.4111832      0.5891873       0.0000000
Si        0.5891827      0.7661743      0.2334452       0.0000000
Si        0.8388056      0.4838246      0.0165535       0.0000000
Si        0.4838193      0.8388026      0.6608129       0.0000000
Si        0.6608161      0.0165498      0.4838207       0.0000000
Si        0.0165600      0.6608070      0.8388126       0.0000000
Si        0.6608133      0.8388041      0.0165602       0.0000000
Si        0.0165573      0.4838147      0.6608153       0.0000000
Si        0.8388094      0.6608065      0.4838193       0.0000000
Si        0.4838306      0.0165457      0.8388055       0.0000000
Si        0.4838184      0.6608096      0.0165576       0.0000000
Si        0.8388113      0.0165521      0.6608132       0.0000000
Si        0.0165537      0.8387980      0.4838302       0.0000000
Si        0.6608126      0.4838156      0.8388085       0.0000000
O         0.8356835      0.4143122      0.6249999       0.0000000
O         0.4143363      0.8356622      0.1250001       0.0000000
O         0.6249767      0.1249962      0.8356935       0.0000000
O         0.1249987      0.6250092      0.4143101       0.0000000
O         0.6249995      0.8356785      0.4143185       0.0000000
O         0.1250008      0.4143296      0.8356690       0.0000000
O         0.8356949      0.6249698      0.1250039       0.0000000
O         0.4143134      0.1249928      0.6250144       0.0000000
O         0.4143183      0.6249927      0.8356841       0.0000000
O         0.8356682      0.1249946      0.4143373       0.0000000
O         0.1250022      0.8356878      0.6249765       0.0000000
O         0.6250159      0.4143045      0.1249988       0.0000000
O         0.4143185      0.8356785      0.6249993       0.0000000
O         0.8356689      0.4143297      0.1250008       0.0000000
O         0.6250144      0.1249928      0.4143133       0.0000000
O         0.1250039      0.6249698      0.8356950       0.0000000
O         0.6249998      0.4143123      0.8356835       0.0000000
O         0.1250002      0.8356623      0.4143362       0.0000000
O         0.4143102      0.6250092      0.1249987       0.0000000
O         0.8356934      0.1249963      0.6249766       0.0000000
O         0.8356841      0.6249928      0.4143183       0.0000000
O         0.4143373      0.1249946      0.8356682       0.0000000
O         0.1249988      0.4143043      0.6250159       0.0000000
O         0.6249766      0.8356876      0.1250022       0.0000000
O         0.8023970      0.5948049      0.5948120       0.0000000
O         0.5948239      0.8023903      0.0079678       0.0000000
O         0.5948250      0.0079595      0.8023978       0.0000000
O         0.0079929      0.5947993      0.5948063       0.0000000
O         0.5948116      0.8023906      0.5948116       0.0000000
O         0.0079677      0.5948158      0.8024001       0.0000000
O         0.8024001      0.5948158      0.0079676       0.0000000
O         0.5948079      0.0079823      0.5948078       0.0000000
O         0.5948119      0.5948049      0.8023970       0.0000000
O         0.8023979      0.0079594      0.5948250       0.0000000
O         0.0079678      0.8023905      0.5948238       0.0000000
O         0.5948063      0.5947993      0.0079928       0.0000000
O         0.4476021      0.6551733      0.2420293       0.0000000
O         0.6551902      0.4475984      0.6551901       0.0000000
O         0.6551966      0.2419979      0.6551966       0.0000000
O         0.2420292      0.6551734      0.4476021       0.0000000
O         0.6551803      0.4475969      0.2420282       0.0000000
O         0.2420037      0.6551896      0.6551974       0.0000000
O         0.4476048      0.6551832      0.6551899       0.0000000
O         0.6551795      0.2420227      0.4476044       0.0000000
O         0.6551974      0.6551895      0.2420038       0.0000000
O         0.4476043      0.2420229      0.6551796       0.0000000
O         0.2420282      0.4475968      0.6551805       0.0000000
O         0.6551899      0.6551832      0.4476048       0.0000000
O         0.7706702      0.4737273      0.7706702       0.0000000
O         0.4737485      0.7706668      0.9849098       0.0000000
O         0.7706739      0.9849295      0.7706739       0.0000000
O         0.9849098      0.7706668      0.4737486       0.0000000
O         0.7706698      0.7706649      0.4737310       0.0000000
O         0.9849098      0.4737445      0.7706716       0.0000000
O         0.7706739      0.7706668      0.9849375       0.0000000
O         0.4737490      0.9849027      0.7706733       0.0000000
O         0.4737309      0.7706649      0.7706698       0.0000000
O         0.7706733      0.9849029      0.4737489       0.0000000
O         0.9849377      0.7706667      0.7706739       0.0000000
O         0.7706716      0.4737445      0.9849098       0.0000000
O         0.4793277      0.7762398      0.2650976       0.0000000
O         0.7762680      0.4793240      0.4793302       0.0000000
O         0.4793270      0.2650923      0.7762475       0.0000000
O         0.2650710      0.4793202      0.4793263       0.0000000
O         0.4793262      0.4793202      0.2650712       0.0000000
O         0.2650977      0.7762398      0.4793277       0.0000000
O         0.4793302      0.4793240      0.7762679       0.0000000
O         0.7762474      0.2650925      0.4793270       0.0000000
O         0.7762473      0.4793215      0.2650984       0.0000000
O         0.4793262      0.2650671      0.4793262       0.0000000
O         0.2650983      0.4793216      0.7762473       0.0000000
O         0.4793299      0.7762625      0.4793299       0.0000000
O         0.9480838      0.4514959      0.6523334       0.0000000
O         0.4515028      0.9480763      0.9480824       0.0000000
O         0.6523380      0.9480784      0.9480849       0.0000000
O         0.9480842      0.6523268      0.4515009       0.0000000
O         0.6523334      0.9480780      0.4515010       0.0000000
O         0.9480825      0.4514947      0.9480825       0.0000000
O         0.9480865      0.6523321      0.9480864       0.0000000
O         0.4515010      0.9480780      0.6523334       0.0000000
O         0.4515009      0.6523268      0.9480842       0.0000000
O         0.9480824      0.9480763      0.4515027       0.0000000
O         0.9480849      0.9480784      0.6523381       0.0000000
O         0.6523334      0.4514959      0.9480838       0.0000000
O         0.3019176      0.7984918      0.3019176       0.0000000
O         0.7984983      0.3019100      0.5976701       0.0000000
O         0.5976701      0.3019100      0.7984983       0.0000000
O         0.3019153      0.5976570      0.3019153       0.0000000
O         0.5976658      0.3019083      0.3019159       0.0000000
O         0.3019170      0.7984915      0.5976689       0.0000000
O         0.3019181      0.5976619      0.7984983       0.0000000
O         0.7984978      0.3019108      0.3019182       0.0000000
O         0.7984982      0.5976618      0.3019181       0.0000000
O         0.3019160      0.3019083      0.5976656       0.0000000
O         0.3019182      0.3019108      0.7984980       0.0000000
O         0.5976689      0.7984914      0.3019170       0.0000000
space
P 1
supercell 1 1 1
species
O  core  O  core
O  shel  O  shel
Si core  Si core
library catlow nodump
output cif ReferenceDataBase/FAU_posit_00.00GPa_opt
dump every 1 ReferenceDataBase/FAU_posit_00.00GPa.grs
