opti conv nosymm shellonly
name     ReferenceDataBase/MFI_posit_00.00GPa
switch_min rfo gnorm 0.08
cuts 1.1
stepmx opt 0.1
switch_stepmx 0.3 gnorm 0.005
maxcyc 500
cell
 19.39660  19.73400  13.22510  89.99990  91.75280  90.00010
fractional
Si        0.0542618      0.4175862      0.6727610       0.0000000
Si        0.9458326      0.5818256      0.3280772       0.0000000
Si        0.5542727      0.0818225      0.1727864       0.0000000
Si        0.4458531      0.9175726      0.8281276       0.0000000
Si        0.0386966      0.3140232      0.8334587       0.0000000
Si        0.9613985      0.6853837      0.1673901       0.0000000
Si        0.5387046      0.1853852      0.3334808       0.0000000
Si        0.4614121      0.8140099      0.6674307       0.0000000
Si        0.0617069      0.2830023      0.0526009       0.0000000
Si        0.9384037      0.7164136      0.9482418       0.0000000
Si        0.5616996      0.2164071      0.5526235       0.0000000
Si        0.4383831      0.7829905      0.4482883       0.0000000
Si        0.0624930      0.1294957      0.0236883       0.0000000
Si        0.9376256      0.8699206      0.9771675       0.0000000
Si        0.5624914      0.3699173      0.5237040       0.0000000
Si        0.4376162      0.6294842      0.4772040       0.0000000
Si        0.0254787      0.0806961      0.8149606       0.0000000
Si        0.9746222      0.9187210      0.1859047       0.0000000
Si        0.5254805      0.4187168      0.3149720       0.0000000
Si        0.4746298      0.5806770      0.6859347       0.0000000
Si        0.0550796      0.1974499      0.6824335       0.0000000
Si        0.9450111      0.8019558      0.3184105       0.0000000
Si        0.5550936      0.3019572      0.1824618       0.0000000
Si        0.4450311      0.6974385      0.8184499       0.0000000
Si        0.8311905      0.4229251      0.6643738       0.0000000
Si        0.1689096      0.5764871      0.3365132       0.0000000
Si        0.3311961      0.0764798      0.1643755       0.0000000
Si        0.6689239      0.9229103      0.8365214       0.0000000
Si        0.8811247      0.3018763      0.8055778       0.0000000
Si        0.1189707      0.6975114      0.1952717       0.0000000
Si        0.3811290      0.1975202      0.3055964       0.0000000
Si        0.6189808      0.8018727      0.6953025       0.0000000
Si        0.8244785      0.2663682      0.0159349       0.0000000
Si        0.1756325      0.7330234      0.9849281       0.0000000
Si        0.3244715      0.2330209      0.5159491       0.0000000
Si        0.6756219      0.7663537      0.4849532       0.0000000
Si        0.8217840      0.1121954      0.0176050       0.0000000
Si        0.1783345      0.8872077      0.9832615       0.0000000
Si        0.3217810      0.3871991      0.5176238       0.0000000
Si        0.6783297      0.6121740      0.4832939       0.0000000
Si        0.8695154      0.0653494      0.8134136       0.0000000
Si        0.1305917      0.9340677      0.1874496       0.0000000
Si        0.3695132      0.4340589      0.3134306       0.0000000
Si        0.6305977      0.5653273      0.6874818       0.0000000
Si        0.8446730      0.1814794      0.6709478       0.0000000
Si        0.1554261      0.8179113      0.3298600       0.0000000
Si        0.3446760      0.3179247      0.1709758       0.0000000
Si        0.6554366      0.6814808      0.8299026       0.0000000
Si        0.4450798      0.4323773      0.6471552       0.0000000
Si        0.5550364      0.5670164      0.3537595       0.0000000
Si        0.9450800      0.0670203      0.1471271       0.0000000
Si        0.0550392      0.9323902      0.8537231       0.0000000
Si        0.4747410      0.3082681      0.7906386       0.0000000
Si        0.5253906      0.6911145      0.2102616       0.0000000
Si        0.9747331      0.1911301      0.2906089       0.0000000
Si        0.0253803      0.8082938      0.7102177       0.0000000
Si        0.4413786      0.2743737      0.0105435       0.0000000
Si        0.5587555      0.7250136      0.9903627       0.0000000
Si        0.9413664      0.2250280      0.5105123       0.0000000
Si        0.0587359      0.7743790      0.4903228       0.0000000
Si        0.4360313      0.1191603      0.0174342       0.0000000
Si        0.5641056      0.8802308      0.9834702       0.0000000
Si        0.9360154      0.3802437      0.5174184       0.0000000
Si        0.0640690      0.6191658      0.4834326       0.0000000
Si        0.4788463      0.0667511      0.8060499       0.0000000
Si        0.5212680      0.9326430      0.1948487       0.0000000
Si        0.9788406      0.4326503      0.3060378       0.0000000
Si        0.0212564      0.5667662      0.6948133       0.0000000
Si        0.4328975      0.1778479      0.6712884       0.0000000
Si        0.5671816      0.8215466      0.3296201       0.0000000
Si        0.9329056      0.3215564      0.1712610       0.0000000
Si        0.0672029      0.6778642      0.8295715       0.0000000
Si        0.6733215      0.4155839      0.6787779       0.0000000
Si        0.3267838      0.5838125      0.3221365       0.0000000
Si        0.1733228      0.0838176      0.1787546       0.0000000
Si        0.8267951      0.9155955      0.8220981       0.0000000
Si        0.6341875      0.3040830      0.8249423       0.0000000
Si        0.3659391      0.6952935      0.1759465       0.0000000
Si        0.1341790      0.1953122      0.3249217       0.0000000
Si        0.8659272      0.8041094      0.6759056       0.0000000
Si        0.6614233      0.2654792      0.0392125       0.0000000
Si        0.3386869      0.7339104      0.9616830       0.0000000
Si        0.1614131      0.2339200      0.5391921       0.0000000
Si        0.8386703      0.7654813      0.4616441       0.0000000
Si        0.6650317      0.1102441      0.0252858       0.0000000
Si        0.3350853      0.8891458      0.9756253       0.0000000
Si        0.1650302      0.3891571      0.5252707       0.0000000
Si        0.8350794      0.6102450      0.4755948       0.0000000
Si        0.6338891      0.0668729      0.7981223       0.0000000
Si        0.3662197      0.9325175      0.2027819       0.0000000
Si        0.1338885      0.4325256      0.2981118       0.0000000
Si        0.8662201      0.5668858      0.7027625       0.0000000
Si        0.6886920      0.1906906      0.7011384       0.0000000
Si        0.3114213      0.8086923      0.2997424       0.0000000
Si        0.1886916      0.3087085      0.2011197       0.0000000
Si        0.8114197      0.6907130      0.7997148       0.0000000
O         0.0790134      0.3678961      0.7641802       0.0000000
O         0.9210673      0.6315206      0.2366729       0.0000000
O         0.5790257      0.1315146      0.2642003       0.0000000
O         0.4210911      0.8678687      0.7367328       0.0000000
O         0.0755190      0.3180236      0.9443988       0.0000000
O         0.9245894      0.6813885      0.0564413       0.0000000
O         0.5755193      0.1813819      0.4444268       0.0000000
O         0.4245847      0.8180153      0.5564924       0.0000000
O         0.0325391      0.2061507      0.0356581       0.0000000
O         0.9675736      0.7932658      0.9651951       0.0000000
O         0.5325397      0.2932615      0.5356714       0.0000000
O         0.4675601      0.7061430      0.4652357       0.0000000
O         0.0749000      0.1111284      0.9058146       0.0000000
O         0.9252074      0.8882984      0.0950367       0.0000000
O         0.5748995      0.3882925      0.4058325       0.0000000
O         0.4252120      0.6111056      0.5950761       0.0000000
O         0.0360293      0.1194187      0.7080624       0.0000000
O         0.9640522      0.8799917      0.2927892       0.0000000
O         0.5360467      0.3799915      0.2080790       0.0000000
O         0.4640723      0.6194032      0.7928267       0.0000000
O         0.0468340      0.2385854      0.7873017       0.0000000
O         0.9532706      0.7608265      0.2135411       0.0000000
O         0.5468451      0.2608270      0.2873326       0.0000000
O         0.4532876      0.7385665      0.7135767       0.0000000
O         0.8436642      0.3531540      0.7261741       0.0000000
O         0.1564345      0.6462601      0.2747150       0.0000000
O         0.3436742      0.1462522      0.2261723       0.0000000
O         0.6564454      0.8531388      0.7747239       0.0000000
O         0.8317185      0.2944285      0.9014958       0.0000000
O         0.1683739      0.7049196      0.0993445       0.0000000
O         0.3317285      0.2049356      0.4015256       0.0000000
O         0.6683940      0.7944320      0.5993871       0.0000000
O         0.8534108      0.1888455      0.0244769       0.0000000
O         0.1467142      0.8105552      0.9764463       0.0000000
O         0.3534001      0.3105462      0.5244730       0.0000000
O         0.6467019      0.6888250      0.4764640       0.0000000
O         0.8158376      0.0876194      0.8998533       0.0000000
O         0.1842669      0.9118135      0.1010019       0.0000000
O         0.3158430      0.4117885      0.3998773       0.0000000
O         0.6842769      0.5875765      0.6010355       0.0000000
O         0.8483495      0.1029468      0.7075922       0.0000000
O         0.1517618      0.8964544      0.2932545       0.0000000
O         0.3483425      0.3964608      0.2076115       0.0000000
O         0.6517707      0.6029425      0.7932838       0.0000000
O         0.8899618      0.2282571      0.7508076       0.0000000
O         0.1101307      0.7711510      0.2499864       0.0000000
O         0.3899524      0.2711528      0.2508576       0.0000000
O         0.6101289      0.7282473      0.7500504       0.0000000
O         0.9565396      0.3307995      0.8410248       0.0000000
O         0.0435518      0.6685819      0.1598567       0.0000000
O         0.4565490      0.1686027      0.3410277       0.0000000
O         0.5435653      0.8308032      0.6598637       0.0000000
O         0.9464057      0.0884767      0.8517555       0.0000000
O         0.0536980      0.9109405      0.1491241       0.0000000
O         0.4464062      0.4109289      0.3517567       0.0000000
O         0.5537035      0.5884541      0.6491495       0.0000000
O         0.1188211      0.4337949      0.6012383       0.0000000
O         0.8812821      0.5656117      0.3996123       0.0000000
O         0.6188332      0.0656071      0.1012704       0.0000000
O         0.3813059      0.9337834      0.8996698       0.0000000
O         0.9919271      0.3789036      0.6113666       0.0000000
O         0.0081728      0.6205048      0.3894640       0.0000000
O         0.4919422      0.1205043      0.1113825       0.0000000
O         0.5082012      0.8789046      0.8895102       0.0000000
O         0.8658836      0.4166572      0.5541414       0.0000000
O         0.1342076      0.5827501      0.4467407       0.0000000
O         0.3659011      0.0827418      0.0541492       0.0000000
O         0.6342431      0.9166413      0.9467637       0.0000000
O         0.1339454      0.2039503      0.6449640       0.0000000
O         0.8661429      0.7954409      0.3558688       0.0000000
O         0.6339583      0.2954517      0.1449858       0.0000000
O         0.3661655      0.7039523      0.8559086       0.0000000
O         0.0056585      0.2266970      0.5916099       0.0000000
O         0.9944318      0.7727189      0.4092439       0.0000000
O         0.5056685      0.2727044      0.0916450       0.0000000
O         0.4944518      0.7266775      0.9092834       0.0000000
O         0.8757354      0.1873572      0.5589872       0.0000000
O         0.1243763      0.8120190      0.4418264       0.0000000
O         0.3757494      0.3120424      0.0590223       0.0000000
O         0.6243907      0.6873589      0.9418758       0.0000000
O         0.0438811      0.0024146      0.7923293       0.0000000
O         0.9562317      0.9970063      0.2085493       0.0000000
O         0.5438692      0.4970036      0.2923373       0.0000000
O         0.4562289      0.5023934      0.7085740       0.0000000
O         0.8685905      0.9841486      0.7941951       0.0000000
O         0.1315257      0.0152679      0.2066794       0.0000000
O         0.3685801      0.5152606      0.2942183       0.0000000
O         0.6315218      0.4841267      0.7067202       0.0000000
O         0.7497331      0.4361632      0.6448461       0.0000000
O         0.2503660      0.5632471      0.3560542       0.0000000
O         0.2497387      0.0632502      0.1448305       0.0000000
O         0.7503803      0.9361596      0.8560324       0.0000000
O         0.7655556      0.2079857      0.6649415       0.0000000
O         0.2345362      0.7913848      0.3358209       0.0000000
O         0.2655597      0.2914160      0.1649457       0.0000000
O         0.7345442      0.7080145      0.8358511       0.0000000
O         0.7443982      0.2683913      0.0443380       0.0000000
O         0.2557124      0.7309982      0.9565210       0.0000000
O         0.2443879      0.2310013      0.5443258       0.0000000
O         0.7556921      0.7683867      0.4564912       0.0000000
O         0.7453065      0.1098183      0.0641743       0.0000000
O         0.2548168      0.8895825      0.9367040       0.0000000
O         0.2453001      0.3895829      0.5641843       0.0000000
O         0.7548042      0.6098074      0.4367125       0.0000000
O         0.4425405      0.3722511      0.7298329       0.0000000
O         0.5576087      0.6271492      0.2710935       0.0000000
O         0.9425291      0.1271490      0.2297993       0.0000000
O         0.0575770      0.8722772      0.7710265       0.0000000
O         0.4617525      0.3161549      0.9104399       0.0000000
O         0.5384009      0.6832228      0.0904671       0.0000000
O         0.9617397      0.1832455      0.4104078       0.0000000
O         0.0383890      0.8161780      0.5904226       0.0000000
O         0.4214588      0.1965402      0.9807632       0.0000000
O         0.5786676      0.8028494      0.0201365       0.0000000
O         0.9214463      0.3028632      0.4807446       0.0000000
O         0.0786340      0.6965430      0.5201162       0.0000000
O         0.4659932      0.0748382      0.9259856       0.0000000
O         0.5341487      0.9245501      0.0749244       0.0000000
O         0.9659681      0.4245714      0.4259685       0.0000000
O         0.0340946      0.5748448      0.5748726       0.0000000
O         0.4235328      0.1087111      0.7362594       0.0000000
O         0.5765694      0.8906919      0.2646753       0.0000000
O         0.9235328      0.3906891      0.2362347       0.0000000
O         0.0765748      0.6087313      0.7645897       0.0000000
O         0.4360253      0.2407002      0.7499350       0.0000000
O         0.5640662      0.7587090      0.2509481       0.0000000
O         0.9360250      0.2587030      0.2499041       0.0000000
O         0.0640803      0.7407216      0.7509339       0.0000000
O         0.6774729      0.3664104      0.7776362       0.0000000
O         0.3226403      0.6329813      0.2232725       0.0000000
O         0.1774643      0.1329819      0.2776238       0.0000000
O         0.8226472      0.8664371      0.7232226       0.0000000
O         0.6301065      0.3121264      0.9467396       0.0000000
O         0.3699939      0.6872481      0.0541489       0.0000000
O         0.1300970      0.1872724      0.4467179       0.0000000
O         0.8699795      0.8121461      0.5541037       0.0000000
O         0.6350468      0.1874696      0.0229818       0.0000000
O         0.3650634      0.8119194      0.9779419       0.0000000
O         0.1350438      0.3119322      0.5229543       0.0000000
O         0.8650523      0.6874754      0.4778993       0.0000000
O         0.6599987      0.0761777      0.9144906       0.0000000
O         0.3400959      0.9232152      0.0864202       0.0000000
O         0.1600149      0.4232262      0.4144752       0.0000000
O         0.8401226      0.5761766      0.5863873       0.0000000
O         0.6823855      0.1097364      0.7228849       0.0000000
O         0.3177350      0.8896498      0.2780297       0.0000000
O         0.1823781      0.3896619      0.2228644       0.0000000
O         0.8177196      0.6097571      0.7779806       0.0000000
O         0.6733363      0.2320426      0.8052652       0.0000000
O         0.3268308      0.7673543      0.1956267       0.0000000
O         0.1733257      0.2673537      0.3052400       0.0000000
O         0.8267979      0.7320619      0.6955951       0.0000000
O         0.5573136      0.3033780      0.7714369       0.0000000
O         0.4428146      0.6959707      0.2294416       0.0000000
O         0.0573067      0.1960156      0.2714117       0.0000000
O         0.9428044      0.8034132      0.7293925       0.0000000
O         0.5555395      0.0951485      0.7827042       0.0000000
O         0.4445712      0.9042440      0.2181644       0.0000000
O         0.0555379      0.4042492      0.2827214       0.0000000
O         0.9445672      0.5951647      0.7181790       0.0000000
O         0.3725834      0.4370935      0.5824837       0.0000000
O         0.6275262      0.5622752      0.4184400       0.0000000
O         0.8725876      0.0622904      0.0824442       0.0000000
O         0.1275412      0.9370988      0.9183837       0.0000000
O         0.5076834      0.4229654      0.5694534       0.0000000
O         0.4924290      0.5764443      0.4314502       0.0000000
O         0.0076885      0.0764432      0.0694354       0.0000000
O         0.9924419      0.9229638      0.9314345       0.0000000
O         0.6359191      0.3759547      0.5847651       0.0000000
O         0.3641860      0.6234402      0.4161502       0.0000000
O         0.1359223      0.1234535      0.0847455       0.0000000
O         0.8642016      0.8759577      0.9160994       0.0000000
O         0.3672510      0.1847510      0.5939937       0.0000000
O         0.6328076      0.8146213      0.4069477       0.0000000
O         0.8672689      0.3146536      0.0939458       0.0000000
O         0.1328430      0.6847680      0.9068754       0.0000000
O         0.5037309      0.1730060      0.6094378       0.0000000
O         0.4963312      0.8263910      0.3914309       0.0000000
O         0.0037473      0.3264045      0.1094321       0.0000000
O         0.9963651      0.6730135      0.8914103       0.0000000
O         0.6347195      0.2168703      0.6144467       0.0000000
O         0.3653499      0.7825115      0.3864955       0.0000000
O         0.1347328      0.2825322      0.1144091       0.0000000
O         0.8653785      0.7168863      0.8864285       0.0000000
O         0.4738575      0.9870302      0.7789121       0.0000000
O         0.5262398      0.0123668      0.2219694       0.0000000
O         0.9738556      0.5123680      0.2788845       0.0000000
O         0.0262399      0.4870450      0.7219456       0.0000000
O         0.6367074      0.9864060      0.7715120       0.0000000
O         0.3633913      0.0129825      0.2294029       0.0000000
O         0.1367084      0.5129904      0.2714897       0.0000000
O         0.8633959      0.4864205      0.7293921       0.0000000
space
 1
supercell 1 1 1
species
O  core  O  core
O  shel  O  shel
Si core  Si core
library catlow nodump
output cif ReferenceDataBase/MFI_posit_00.00GPa_opt
dump every 1 ReferenceDataBase/MFI_posit_00.00GPa.grs
