cif                                     
   1.0000000000000000     
    12.5922567928028624   -0.0000263900575204   -0.0001505486198800
    -0.0000223005424063   12.6996076082314957   -0.0017499737085024
    -0.0001342315201242   -0.0017241573569732   12.6830938828471158
   Si   O 
    40    80
Direct
  0.1152111022709903  0.6865682082708204  0.5001857320133212
  0.1152709441098665  0.2958162721792945  0.5002427996967498
  0.3088905448893726  0.3750558751444331  0.3806736304938312
  0.3088703886186295  0.6073139995247274  0.3805863986732945
  0.8860895749029822  0.6865749901047593  0.9992407917157351
  0.8861530312682007  0.2958325292636133  0.9992783195867148
  0.6924809964293388  0.3750906437027623  0.1188930483950870
  0.6924515825795297  0.6073419373952760  0.1187816554843337
  0.6152131986247795  0.7958301757905843  0.9992473545724678
  0.6152650699855613  0.1865625567105980  0.9992514377999555
  0.8089046971042464  0.1073417107160779  0.1188044056764568
  0.8088666744879305  0.8750861252394131  0.1188816574463871
  0.3860951565342603  0.7958252077441728  0.5002249449313325
  0.3861424637938669  0.1865713482532101  0.5002159772181756
  0.1924906556938666  0.1073095487972751  0.3806052672662830
  0.1924513352006159  0.8750589106491447  0.3806535943169536
  0.8861551740635392  0.2958341405345593  0.4992794568814958
  0.8860873973380379  0.6865760248284829  0.4992349540985117
  0.6924537199246359  0.6073413335714903  0.6187798445517458
  0.6924821114734954  0.3750900262432566  0.6188958776033573
  0.1152689722047313  0.2958173125697385  0.0002410691726169
  0.1152132229040248  0.6865695234367593  0.0001911027726536
  0.3088686611484874  0.6073135730655466  0.8805880099386414
  0.3088892681603639  0.3750557843940214  0.8806710944150851
  0.3861404675363431  0.1865726231835936  0.0002173192735597
  0.3860974406957709  0.7958267638830065  0.0002188574991919
  0.1924490510962826  0.8750585066183802  0.8806515044276750
  0.1924895839254859  0.1073091162177562  0.8806076011503805
  0.6152671079230387  0.1865634017500497  0.4992501515897771
  0.6152110361772500  0.7958313643855703  0.4992527466817052
  0.8088687222195432  0.8750858456489752  0.6188825915073934
  0.8089065208256798  0.1073412485731993  0.6188012782817296
  0.2506845052651059  0.2411460290793812  0.6904100490013931
  0.7506742910358781  0.2412716351033808  0.8090829445005454
  0.7506703729362272  0.7412620577769999  0.3090619314055800
  0.2506806566706530  0.7411715312298739  0.1903872072847292
  0.2506740846781668  0.7411682163607267  0.6903874108566725
  0.7506770756001444  0.7412593613117409  0.8090618146859470
  0.7506753407634292  0.2412749551723863  0.3090829720871113
  0.2506830657995636  0.2411486728750560  0.1904098794016136
  0.1449095144471499  0.2571041729172947  0.6187276202801755
  0.1448924655116244  0.7252106479067990  0.6187055520913631
  0.2681978440525157  0.3455036527333846  0.7627394258053286
  0.2682393776087082  0.6367983156570105  0.7626314018320244
  0.0006472589559650  0.6279772166346191  0.4996939563140401
  0.2071438554671516  0.6062343102726047  0.4602724854964819
  0.2072211868859100  0.3761668643425367  0.4604346837342206
  0.1063605541017125  0.7881569101438188  0.4209537109238397
  0.1064340255097136  0.1942660013064241  0.4209073788084083
  0.3623385057496904  0.4911903170375496  0.3802610465142848
  0.8564675845063832  0.2572327752562558  0.8807452987085043
  0.8564432893412999  0.7252792831186952  0.8807517508844001
  0.7330676291671310  0.3456668690304596  0.7368831342660584
  0.7331391992511556  0.6369248045406621  0.7367091929804630
  0.0006500191124914  0.6279774021491775  0.9997021721117676
  0.7941427018828477  0.6062236559223493  0.0390481938888243
  0.7942289089076695  0.3761538967213269  0.0392360438316501
  0.8949179193839782  0.7881253031503448  0.0785781388802036
  0.8950072689140143  0.1942135185766958  0.0784663981487199
  0.6389993903580446  0.4912102001631311  0.1191741917357874
  0.6449102534031823  0.2252516009890968  0.8807618406671764
  0.6448795492057613  0.7571987377540808  0.8807222647825839
  0.7682333536584238  0.1369444592459885  0.7367268448883522
  0.7682417430383026  0.8456510478175190  0.7368529766465244
  0.5006543365468161  0.8544327588344203  0.9997399315264701
  0.7071469581866907  0.8761520022418239  0.0391794162686168
  0.7072062311634042  0.1062138338651977  0.0390753619955291
  0.6063540237890308  0.6942281401505142  0.0784566550054677
  0.6064407666067950  0.2881262707867975  0.0785710252234040
  0.8623430683450266  0.9912067465676131  0.1192076196154304
  0.3564788936599044  0.2252213872057638  0.6187367932645742
  0.3564566067916033  0.7571510889784747  0.6187210584572043
  0.2331390030237372  0.1367716546223861  0.7626529728796569
  0.2331130950602969  0.8455228972229918  0.7627063394315741
  0.5006514149351489  0.8544324579394669  0.4997486111262575
  0.2941438901655005  0.8761585522201258  0.4603921525195176
  0.2942025809055551  0.1062341675675640  0.4603167512804873
  0.3949333935712573  0.6942540642935029  0.4209179292078602
  0.3949851897918819  0.2881547586814577  0.4209748698632367
  0.1390031347537146  0.9911927380398708  0.3802799410812909
  0.8564402113945988  0.7252841738593432  0.3807475925979702
  0.8564682646316086  0.2572389316348307  0.3807454438475801
  0.7331291857479627  0.6369251881090321  0.2367138180465389
  0.7330694816586529  0.3456674007222631  0.2368795324159052
  0.0007183801628230  0.3544252897384439  0.4997830683614026
  0.7942318959222305  0.3761543162413972  0.5392411467427891
  0.7941400942155212  0.6062240056739512  0.5390400923180181
  0.8950100567695003  0.1942128614751226  0.5784643549961714
  0.8949173780595245  0.7881244013458328  0.5785742844448336
  0.6390010165522000  0.4912098082218392  0.6191754405967558
  0.1448959442118962  0.7252163396020777  0.1187094722029300
  0.1449091034667731  0.2571089387414318  0.1187268111333353
  0.2682489617265915  0.6367992057033831  0.2626275713300004
  0.2681957982809706  0.3455038243183353  0.2627433548059699
  0.0007156608865628  0.3544247125927953  0.9997812006844384
  0.2072178205403148  0.3761676010881843  0.9604294155565043
  0.2071466035206981  0.6062352042789456  0.9602796766771888
  0.1064318546272176  0.1942651274855507  0.9209080628101773
  0.1063610700674502  0.7881561799703221  0.9209565521427265
  0.3623371651632397  0.4911902189915693  0.8802598825946433
  0.3564596831718347  0.7571569775601290  0.1187166769442527
  0.3564782249091891  0.2252263466640656  0.1187374204021978
  0.2331232995415391  0.8455235630617679  0.2627112091297192
  0.2331365892587201  0.1367720134469934  0.2626497331317026
  0.5006995653811614  0.1279728524059607  0.9997131735425526
  0.2941996481793652  0.1062347176243890  0.9603214621405769
  0.2941467760423251  0.8761592858636078  0.9603834457316225
  0.3949826963157221  0.2881542115684468  0.9209739486119517
  0.3949343298191579  0.6942534400165457  0.9209144869170558
  0.1390014963674844  0.9911926078720512  0.8802807746117054
  0.6448759101083610  0.7572036910342348  0.3807262269537190
  0.6449106901921269  0.2252571226417146  0.3807616898814743
  0.7682321002319057  0.8456516224247608  0.2368496134275588
  0.7682345461237929  0.1369449727654199  0.2367310498311497
  0.5007021504309321  0.1279726105349894  0.4997115897409188
  0.7072095840393118  0.1062142223273881  0.5390699365886960
  0.7071443979046705  0.8761527798618403  0.5391859944555790
  0.6064430422114739  0.2881250647688773  0.5785724272153914
  0.6063536084561179  0.6942271537991331  0.5784594722597092
  0.8623450531314489  0.9912064540571137  0.6192053168525291

  0.00000000E+00  0.00000000E+00  0.00000000E+00
  0.00000000E+00  0.00000000E+00  0.00000000E+00
  0.00000000E+00  0.00000000E+00  0.00000000E+00
  0.00000000E+00  0.00000000E+00  0.00000000E+00
  0.00000000E+00  0.00000000E+00  0.00000000E+00
  0.00000000E+00  0.00000000E+00  0.00000000E+00
  0.00000000E+00  0.00000000E+00  0.00000000E+00
  0.00000000E+00  0.00000000E+00  0.00000000E+00
  0.00000000E+00  0.00000000E+00  0.00000000E+00
  0.00000000E+00  0.00000000E+00  0.00000000E+00
  0.00000000E+00  0.00000000E+00  0.00000000E+00
  0.00000000E+00  0.00000000E+00  0.00000000E+00
  0.00000000E+00  0.00000000E+00  0.00000000E+00
  0.00000000E+00  0.00000000E+00  0.00000000E+00
  0.00000000E+00  0.00000000E+00  0.00000000E+00
  0.00000000E+00  0.00000000E+00  0.00000000E+00
  0.00000000E+00  0.00000000E+00  0.00000000E+00
  0.00000000E+00  0.00000000E+00  0.00000000E+00
  0.00000000E+00  0.00000000E+00  0.00000000E+00
  0.00000000E+00  0.00000000E+00  0.00000000E+00
  0.00000000E+00  0.00000000E+00  0.00000000E+00
  0.00000000E+00  0.00000000E+00  0.00000000E+00
  0.00000000E+00  0.00000000E+00  0.00000000E+00
  0.00000000E+00  0.00000000E+00  0.00000000E+00
  0.00000000E+00  0.00000000E+00  0.00000000E+00
  0.00000000E+00  0.00000000E+00  0.00000000E+00
  0.00000000E+00  0.00000000E+00  0.00000000E+00
  0.00000000E+00  0.00000000E+00  0.00000000E+00
  0.00000000E+00  0.00000000E+00  0.00000000E+00
  0.00000000E+00  0.00000000E+00  0.00000000E+00
  0.00000000E+00  0.00000000E+00  0.00000000E+00
  0.00000000E+00  0.00000000E+00  0.00000000E+00
  0.00000000E+00  0.00000000E+00  0.00000000E+00
  0.00000000E+00  0.00000000E+00  0.00000000E+00
  0.00000000E+00  0.00000000E+00  0.00000000E+00
  0.00000000E+00  0.00000000E+00  0.00000000E+00
  0.00000000E+00  0.00000000E+00  0.00000000E+00
  0.00000000E+00  0.00000000E+00  0.00000000E+00
  0.00000000E+00  0.00000000E+00  0.00000000E+00
  0.00000000E+00  0.00000000E+00  0.00000000E+00
  0.00000000E+00  0.00000000E+00  0.00000000E+00
  0.00000000E+00  0.00000000E+00  0.00000000E+00
  0.00000000E+00  0.00000000E+00  0.00000000E+00
  0.00000000E+00  0.00000000E+00  0.00000000E+00
  0.00000000E+00  0.00000000E+00  0.00000000E+00
  0.00000000E+00  0.00000000E+00  0.00000000E+00
  0.00000000E+00  0.00000000E+00  0.00000000E+00
  0.00000000E+00  0.00000000E+00  0.00000000E+00
  0.00000000E+00  0.00000000E+00  0.00000000E+00
  0.00000000E+00  0.00000000E+00  0.00000000E+00
  0.00000000E+00  0.00000000E+00  0.00000000E+00
  0.00000000E+00  0.00000000E+00  0.00000000E+00
  0.00000000E+00  0.00000000E+00  0.00000000E+00
  0.00000000E+00  0.00000000E+00  0.00000000E+00
  0.00000000E+00  0.00000000E+00  0.00000000E+00
  0.00000000E+00  0.00000000E+00  0.00000000E+00
  0.00000000E+00  0.00000000E+00  0.00000000E+00
  0.00000000E+00  0.00000000E+00  0.00000000E+00
  0.00000000E+00  0.00000000E+00  0.00000000E+00
  0.00000000E+00  0.00000000E+00  0.00000000E+00
  0.00000000E+00  0.00000000E+00  0.00000000E+00
  0.00000000E+00  0.00000000E+00  0.00000000E+00
  0.00000000E+00  0.00000000E+00  0.00000000E+00
  0.00000000E+00  0.00000000E+00  0.00000000E+00
  0.00000000E+00  0.00000000E+00  0.00000000E+00
  0.00000000E+00  0.00000000E+00  0.00000000E+00
  0.00000000E+00  0.00000000E+00  0.00000000E+00
  0.00000000E+00  0.00000000E+00  0.00000000E+00
  0.00000000E+00  0.00000000E+00  0.00000000E+00
  0.00000000E+00  0.00000000E+00  0.00000000E+00
  0.00000000E+00  0.00000000E+00  0.00000000E+00
  0.00000000E+00  0.00000000E+00  0.00000000E+00
  0.00000000E+00  0.00000000E+00  0.00000000E+00
  0.00000000E+00  0.00000000E+00  0.00000000E+00
  0.00000000E+00  0.00000000E+00  0.00000000E+00
  0.00000000E+00  0.00000000E+00  0.00000000E+00
  0.00000000E+00  0.00000000E+00  0.00000000E+00
  0.00000000E+00  0.00000000E+00  0.00000000E+00
  0.00000000E+00  0.00000000E+00  0.00000000E+00
  0.00000000E+00  0.00000000E+00  0.00000000E+00
  0.00000000E+00  0.00000000E+00  0.00000000E+00
  0.00000000E+00  0.00000000E+00  0.00000000E+00
  0.00000000E+00  0.00000000E+00  0.00000000E+00
  0.00000000E+00  0.00000000E+00  0.00000000E+00
  0.00000000E+00  0.00000000E+00  0.00000000E+00
  0.00000000E+00  0.00000000E+00  0.00000000E+00
  0.00000000E+00  0.00000000E+00  0.00000000E+00
  0.00000000E+00  0.00000000E+00  0.00000000E+00
  0.00000000E+00  0.00000000E+00  0.00000000E+00
  0.00000000E+00  0.00000000E+00  0.00000000E+00
  0.00000000E+00  0.00000000E+00  0.00000000E+00
  0.00000000E+00  0.00000000E+00  0.00000000E+00
  0.00000000E+00  0.00000000E+00  0.00000000E+00
  0.00000000E+00  0.00000000E+00  0.00000000E+00
  0.00000000E+00  0.00000000E+00  0.00000000E+00
  0.00000000E+00  0.00000000E+00  0.00000000E+00
  0.00000000E+00  0.00000000E+00  0.00000000E+00
  0.00000000E+00  0.00000000E+00  0.00000000E+00
  0.00000000E+00  0.00000000E+00  0.00000000E+00
  0.00000000E+00  0.00000000E+00  0.00000000E+00
  0.00000000E+00  0.00000000E+00  0.00000000E+00
  0.00000000E+00  0.00000000E+00  0.00000000E+00
  0.00000000E+00  0.00000000E+00  0.00000000E+00
  0.00000000E+00  0.00000000E+00  0.00000000E+00
  0.00000000E+00  0.00000000E+00  0.00000000E+00
  0.00000000E+00  0.00000000E+00  0.00000000E+00
  0.00000000E+00  0.00000000E+00  0.00000000E+00
  0.00000000E+00  0.00000000E+00  0.00000000E+00
  0.00000000E+00  0.00000000E+00  0.00000000E+00
  0.00000000E+00  0.00000000E+00  0.00000000E+00
  0.00000000E+00  0.00000000E+00  0.00000000E+00
  0.00000000E+00  0.00000000E+00  0.00000000E+00
  0.00000000E+00  0.00000000E+00  0.00000000E+00
  0.00000000E+00  0.00000000E+00  0.00000000E+00
  0.00000000E+00  0.00000000E+00  0.00000000E+00
  0.00000000E+00  0.00000000E+00  0.00000000E+00
  0.00000000E+00  0.00000000E+00  0.00000000E+00
  0.00000000E+00  0.00000000E+00  0.00000000E+00
  0.00000000E+00  0.00000000E+00  0.00000000E+00
  0.00000000E+00  0.00000000E+00  0.00000000E+00
