opti conv nosymm shellonly
name     ReferenceDataBase/THO_posit_00.00GPa
switch_min rfo gnorm 0.08
cuts 1.1
stepmx opt 0.1
switch_stepmx 0.3 gnorm 0.005
maxcyc 500
cell
 12.59230  12.69960  12.68310  90.01570  90.00130  90.00020
fractional
Si        0.1152111      0.6865682      0.5001857       0.0000000
Si        0.1152709      0.2958163      0.5002428       0.0000000
Si        0.3088906      0.3750559      0.3806736       0.0000000
Si        0.3088704      0.6073140      0.3805864       0.0000000
Si        0.8860896      0.6865750      0.9992408       0.0000000
Si        0.8861530      0.2958325      0.9992783       0.0000000
Si        0.6924810      0.3750906      0.1188930       0.0000000
Si        0.6924516      0.6073419      0.1187817       0.0000000
Si        0.6152132      0.7958302      0.9992474       0.0000000
Si        0.6152651      0.1865626      0.9992514       0.0000000
Si        0.8089047      0.1073417      0.1188044       0.0000000
Si        0.8088667      0.8750861      0.1188817       0.0000000
Si        0.3860952      0.7958252      0.5002249       0.0000000
Si        0.3861425      0.1865713      0.5002159       0.0000000
Si        0.1924907      0.1073096      0.3806053       0.0000000
Si        0.1924513      0.8750589      0.3806536       0.0000000
Si        0.8861552      0.2958342      0.4992795       0.0000000
Si        0.8860874      0.6865760      0.4992349       0.0000000
Si        0.6924537      0.6073413      0.6187798       0.0000000
Si        0.6924821      0.3750900      0.6188959       0.0000000
Si        0.1152690      0.2958173      0.0002411       0.0000000
Si        0.1152132      0.6865695      0.0001911       0.0000000
Si        0.3088686      0.6073136      0.8805880       0.0000000
Si        0.3088893      0.3750558      0.8806711       0.0000000
Si        0.3861405      0.1865726      0.0002173       0.0000000
Si        0.3860974      0.7958268      0.0002189       0.0000000
Si        0.1924490      0.8750585      0.8806515       0.0000000
Si        0.1924896      0.1073091      0.8806076       0.0000000
Si        0.6152671      0.1865634      0.4992501       0.0000000
Si        0.6152110      0.7958314      0.4992527       0.0000000
Si        0.8088687      0.8750858      0.6188826       0.0000000
Si        0.8089065      0.1073413      0.6188013       0.0000000
Si        0.2506845      0.2411460      0.6904101       0.0000000
Si        0.7506743      0.2412716      0.8090829       0.0000000
Si        0.7506704      0.7412621      0.3090619       0.0000000
Si        0.2506807      0.7411715      0.1903872       0.0000000
Si        0.2506741      0.7411682      0.6903874       0.0000000
Si        0.7506770      0.7412593      0.8090618       0.0000000
Si        0.7506753      0.2412750      0.3090830       0.0000000
Si        0.2506831      0.2411487      0.1904099       0.0000000
O         0.1449095      0.2571042      0.6187276       0.0000000
O         0.1448925      0.7252107      0.6187056       0.0000000
O         0.2681978      0.3455037      0.7627394       0.0000000
O         0.2682394      0.6367983      0.7626314       0.0000000
O         0.0006473      0.6279772      0.4996940       0.0000000
O         0.2071439      0.6062343      0.4602725       0.0000000
O         0.2072212      0.3761669      0.4604347       0.0000000
O         0.1063606      0.7881569      0.4209537       0.0000000
O         0.1064340      0.1942660      0.4209074       0.0000000
O         0.3623385      0.4911903      0.3802610       0.0000000
O         0.8564676      0.2572328      0.8807453       0.0000000
O         0.8564433      0.7252793      0.8807517       0.0000000
O         0.7330676      0.3456669      0.7368832       0.0000000
O         0.7331392      0.6369248      0.7367092       0.0000000
O         0.0006500      0.6279774      0.9997022       0.0000000
O         0.7941427      0.6062236      0.0390482       0.0000000
O         0.7942289      0.3761539      0.0392360       0.0000000
O         0.8949179      0.7881253      0.0785781       0.0000000
O         0.8950073      0.1942135      0.0784664       0.0000000
O         0.6389994      0.4912102      0.1191742       0.0000000
O         0.6449103      0.2252516      0.8807619       0.0000000
O         0.6448795      0.7571988      0.8807223       0.0000000
O         0.7682334      0.1369445      0.7367268       0.0000000
O         0.7682418      0.8456510      0.7368530       0.0000000
O         0.5006543      0.8544328      0.9997399       0.0000000
O         0.7071469      0.8761520      0.0391794       0.0000000
O         0.7072062      0.1062138      0.0390754       0.0000000
O         0.6063540      0.6942281      0.0784567       0.0000000
O         0.6064408      0.2881263      0.0785710       0.0000000
O         0.8623431      0.9912068      0.1192076       0.0000000
O         0.3564789      0.2252214      0.6187368       0.0000000
O         0.3564566      0.7571511      0.6187211       0.0000000
O         0.2331390      0.1367716      0.7626530       0.0000000
O         0.2331131      0.8455229      0.7627063       0.0000000
O         0.5006514      0.8544325      0.4997486       0.0000000
O         0.2941439      0.8761585      0.4603921       0.0000000
O         0.2942026      0.1062342      0.4603167       0.0000000
O         0.3949334      0.6942540      0.4209179       0.0000000
O         0.3949852      0.2881548      0.4209749       0.0000000
O         0.1390031      0.9911928      0.3802799       0.0000000
O         0.8564402      0.7252842      0.3807476       0.0000000
O         0.8564683      0.2572389      0.3807454       0.0000000
O         0.7331292      0.6369252      0.2367138       0.0000000
O         0.7330695      0.3456674      0.2368795       0.0000000
O         0.0007184      0.3544253      0.4997831       0.0000000
O         0.7942319      0.3761543      0.5392411       0.0000000
O         0.7941401      0.6062240      0.5390401       0.0000000
O         0.8950101      0.1942129      0.5784643       0.0000000
O         0.8949174      0.7881244      0.5785743       0.0000000
O         0.6390010      0.4912098      0.6191754       0.0000000
O         0.1448959      0.7252163      0.1187095       0.0000000
O         0.1449091      0.2571089      0.1187268       0.0000000
O         0.2682490      0.6367992      0.2626276       0.0000000
O         0.2681958      0.3455038      0.2627434       0.0000000
O         0.0007157      0.3544247      0.9997812       0.0000000
O         0.2072178      0.3761676      0.9604294       0.0000000
O         0.2071466      0.6062352      0.9602797       0.0000000
O         0.1064319      0.1942651      0.9209080       0.0000000
O         0.1063611      0.7881562      0.9209566       0.0000000
O         0.3623372      0.4911902      0.8802599       0.0000000
O         0.3564597      0.7571570      0.1187167       0.0000000
O         0.3564782      0.2252263      0.1187374       0.0000000
O         0.2331233      0.8455235      0.2627112       0.0000000
O         0.2331366      0.1367720      0.2626497       0.0000000
O         0.5006996      0.1279729      0.9997132       0.0000000
O         0.2941996      0.1062347      0.9603215       0.0000000
O         0.2941468      0.8761593      0.9603835       0.0000000
O         0.3949827      0.2881542      0.9209740       0.0000000
O         0.3949343      0.6942534      0.9209145       0.0000000
O         0.1390015      0.9911926      0.8802808       0.0000000
O         0.6448759      0.7572037      0.3807262       0.0000000
O         0.6449107      0.2252571      0.3807617       0.0000000
O         0.7682321      0.8456516      0.2368496       0.0000000
O         0.7682346      0.1369450      0.2367311       0.0000000
O         0.5007021      0.1279726      0.4997116       0.0000000
O         0.7072096      0.1062142      0.5390700       0.0000000
O         0.7071444      0.8761528      0.5391860       0.0000000
O         0.6064430      0.2881251      0.5785725       0.0000000
O         0.6063536      0.6942272      0.5784595       0.0000000
O         0.8623450      0.9912065      0.6192053       0.0000000
space
P 1
supercell 1 1 1
species
O  core  O  core
O  shel  O  shel
Si core  Si core
library catlow nodump
output cif ReferenceDataBase/THO_posit_00.00GPa_opt
dump every 1 ReferenceDataBase/THO_posit_00.00GPa.grs
