opti conv nosymm shellonly
name     ReferenceDataBase/8049967_122
switch_min rfo gnorm 0.08
cuts 1.1
stepmx opt 0.1
switch_stepmx 0.3 gnorm 0.005
maxcyc 500
cell
 26.14480  17.05750  19.65280  90.00000  26.64990  90.00000
fractional
Si        0.2140070      0.2294104      0.3566221       0.0000000
Si        0.7660381      0.2294163      0.1743316       0.0000000
Si        0.7140028      0.4794105      0.3566263       0.0000000
Si        0.2660338      0.4794161      0.1743359       0.0000000
Si        0.1930307      0.3680328      0.1427296       0.0000000
Si        0.7870070      0.3680303      0.3882289       0.0000000
Si        0.6930302      0.1180292      0.1427375       0.0000000
Si        0.2870064      0.1180341      0.3882369       0.0000000
Si        0.9489769      0.3333188      0.3861299       0.0000000
Si        0.0310646      0.3333194      0.1448165       0.0000000
Si        0.4489744      0.0833191      0.3861430       0.0000000
Si        0.5310621      0.0833192      0.1448297       0.0000000
Si        0.7241270      0.1924064      0.4632589       0.0000000
Si        0.2559117      0.1924099      0.0677131       0.0000000
Si        0.2241313      0.4424050      0.4632442       0.0000000
Si        0.7559159      0.4424112      0.0676985       0.0000000
Si        0.1229092      0.1301071      0.3444946       0.0000000
Si        0.8571300      0.1301155      0.1864702       0.0000000
Si        0.6229111      0.3801145      0.3444858       0.0000000
Si        0.3571317      0.3801081      0.1864614       0.0000000
O         0.2597221      0.1632884      0.3522718       0.0000000
O         0.7203142      0.1632858      0.1787025       0.0000000
O         0.7597123      0.4132736      0.3522712       0.0000000
O         0.2203042      0.4133006      0.1787021       0.0000000
O         0.1872450      0.1910126      0.3164443       0.0000000
O         0.7928144      0.1910309      0.2144960       0.0000000
O         0.6872289      0.4410294      0.3164570       0.0000000
O         0.2927980      0.4410140      0.2145089       0.0000000
O         0.3123319      0.2927084      0.2269669       0.0000000
O         0.6677172      0.2927178      0.3039802       0.0000000
O         0.8123208      0.0427197      0.2269792       0.0000000
O         0.1677060      0.0427065      0.3039927       0.0000000
O         0.1005263      0.2679665      0.0220436       0.0000000
O         0.8795130      0.2679661      0.0089039       0.0000000
O         0.6005297      0.5179651      0.0220493       0.0000000
O         0.3795156      0.5179662      0.0089089       0.0000000
O         0.2587809      0.2858089      0.0665957       0.0000000
O         0.7212584      0.2858050      0.4643850       0.0000000
O         0.7587773      0.0358038      0.0665970       0.0000000
O         0.2212548      0.0358102      0.4643865       0.0000000
O         0.0567962      0.3574087      0.3030607       0.0000000
O         0.9232433      0.3574119      0.2278902       0.0000000
O         0.5567945      0.1074098      0.3030723       0.0000000
O         0.4232415      0.1074109      0.2279019       0.0000000
O         0.2381741      0.4160869      0.0243571       0.0000000
O         0.7418735      0.4161027      0.5065824       0.0000000
O         0.7381712      0.1660889      0.0243702       0.0000000
O         0.2418705      0.1661009      0.5065956       0.0000000
O         0.9900201      0.2965409      0.2654738       0.0000000
O         0.4900186      0.0465409      0.2654859       0.0000000
O         0.8728471      0.4102488      0.4616836       0.0000000
O         0.1071995      0.4102469      0.0692575       0.0000000
O         0.3728429      0.1602481      0.4616986       0.0000000
O         0.6071953      0.1602475      0.0692724       0.0000000
O         0.8314285      0.1571801      0.2942277       0.0000000
O         0.1486080      0.1571775      0.2367414       0.0000000
O         0.3314347      0.4071775      0.2942130       0.0000000
O         0.6486142      0.4071802      0.2367268       0.0000000
O         0.9900210      0.1314300      0.0154853       0.0000000
O         0.4900201      0.3814299      0.0154705       0.0000000
Si        0.2140068      0.2294106      0.8566222       0.0000000
Si        0.7660378      0.2294161      0.6743318       0.0000000
Si        0.7140031      0.4794104      0.8566262       0.0000000
Si        0.2660342      0.4794163      0.6743357       0.0000000
Si        0.1930310      0.3680331      0.6427292       0.0000000
Si        0.7870073      0.3680301      0.8882286       0.0000000
Si        0.6930299      0.1180289      0.6427379       0.0000000
Si        0.2870061      0.1180343      0.8882372       0.0000000
Si        0.9489771      0.3333193      0.8861302       0.0000000
Si        0.0310648      0.3333190      0.6448168       0.0000000
Si        0.4489742      0.0833186      0.8861428       0.0000000
Si        0.5310619      0.0833196      0.6448294       0.0000000
Si        0.7241270      0.1924064      0.9632589       0.0000000
Si        0.2559116      0.1924099      0.5677131       0.0000000
Si        0.2241313      0.4424050      0.9632443       0.0000000
Si        0.7559160      0.4424113      0.5676984       0.0000000
Si        0.1229093      0.1301070      0.8444945       0.0000000
Si        0.8571299      0.1301156      0.6864702       0.0000000
Si        0.6229110      0.3801146      0.8444859       0.0000000
Si        0.3571318      0.3801081      0.6864615       0.0000000
O         0.2597207      0.1632885      0.8522735       0.0000000
O         0.7203127      0.1632856      0.6787044       0.0000000
O         0.7597136      0.4132735      0.8522695       0.0000000
O         0.2203057      0.4133008      0.6787002       0.0000000
O         0.1872454      0.1910126      0.8164436       0.0000000
O         0.7928146      0.1910309      0.7144955       0.0000000
O         0.6872286      0.4410295      0.8164576       0.0000000
O         0.2927978      0.4410140      0.7145094       0.0000000
O         0.3123322      0.2927083      0.7269666       0.0000000
O         0.6677174      0.2927179      0.8039800       0.0000000
O         0.8123204      0.0427198      0.7269796       0.0000000
O         0.1677058      0.0427064      0.8039929       0.0000000
O         0.1005266      0.2679659      0.5220440       0.0000000
O         0.8795125      0.2679654      0.5089035       0.0000000
O         0.6005293      0.5179657      0.5220490       0.0000000
O         0.3795161      0.5179669      0.5089092       0.0000000
O         0.2587804      0.2858089      0.5665962       0.0000000
O         0.7212579      0.2858050      0.9643854       0.0000000
O         0.7587778      0.0358038      0.5665964       0.0000000
O         0.2212552      0.0358101      0.9643860       0.0000000
O         0.0567963      0.3574097      0.8030608       0.0000000
O         0.9232435      0.3574110      0.7278903       0.0000000
O         0.5567942      0.1074088      0.8030722       0.0000000
O         0.4232413      0.1074118      0.7279018       0.0000000
O         0.2381745      0.4160869      0.5243565       0.0000000
O         0.7418739      0.4161027      0.0065819       0.0000000
O         0.7381707      0.1660889      0.5243708       0.0000000
O         0.2418702      0.1661009      0.0065960       0.0000000
O         0.9900205      0.2965410      0.7654741       0.0000000
O         0.4900183      0.0465409      0.7654856       0.0000000
O         0.8728471      0.4102491      0.9616838       0.0000000
O         0.1071995      0.4102467      0.5692576       0.0000000
O         0.3728429      0.1602479      0.9616984       0.0000000
O         0.6071953      0.1602478      0.5692723       0.0000000
O         0.8314285      0.1571804      0.7942276       0.0000000
O         0.1486080      0.1571773      0.7367414       0.0000000
O         0.3314347      0.4071774      0.7942132       0.0000000
O         0.6486142      0.4071804      0.7367269       0.0000000
O         0.9900209      0.1314298      0.5154853       0.0000000
O         0.4900201      0.3814300      0.5154705       0.0000000
Si        0.2140022      0.7294161      0.3566335       0.0000000
Si        0.7660333      0.7294105      0.1743429       0.0000000
Si        0.7140060      0.9794163      0.3566293       0.0000000
Si        0.2660370      0.9794104      0.1743389       0.0000000
Si        0.1930327      0.8680301      0.1427367       0.0000000
Si        0.7870089      0.8680331      0.3882360       0.0000000
Si        0.6930339      0.6180343      0.1427279       0.0000000
Si        0.2870101      0.6180289      0.3882273       0.0000000
Si        0.9489752      0.8333189      0.3861485       0.0000000
Si        0.0310629      0.8333192      0.1448351       0.0000000
Si        0.4489782      0.5833197      0.3861356       0.0000000
Si        0.5310658      0.5833186      0.1448223       0.0000000
Si        0.7241284      0.6924099      0.4632520       0.0000000
Si        0.2559131      0.6924065      0.0677062       0.0000000
Si        0.2241239      0.9424113      0.4632668       0.0000000
Si        0.7559086      0.9424050      0.0677211       0.0000000
Si        0.1229101      0.6301157      0.3444950       0.0000000
Si        0.8571308      0.6301070      0.1864706       0.0000000
Si        0.6229083      0.8801080      0.3445037       0.0000000
Si        0.3571289      0.8801146      0.1864794       0.0000000
O         0.2597273      0.6632857      0.3522609       0.0000000
O         0.7203195      0.6632885      0.1786914       0.0000000
O         0.7597344      0.9133009      0.3522650       0.0000000
O         0.2203263      0.9132735      0.1786958       0.0000000
O         0.1872254      0.6910310      0.3164698       0.0000000
O         0.7927947      0.6910125      0.2145214       0.0000000
O         0.6872426      0.9410138      0.3164553       0.0000000
O         0.2928116      0.9410295      0.2145074       0.0000000
O         0.3123226      0.7927179      0.2269852       0.0000000
O         0.6677078      0.7927082      0.3039985       0.0000000
O         0.8123343      0.5427064      0.2269723       0.0000000
O         0.1677196      0.5427199      0.3039856       0.0000000
O         0.1005272      0.7679662      0.0220612       0.0000000
O         0.8795139      0.7679665      0.0089216       0.0000000
O         0.6005244      0.0179662      0.0220563       0.0000000
O         0.3795103      0.0179650      0.0089158       0.0000000
O         0.2587821      0.7858051      0.0665796       0.0000000
O         0.7212595      0.7858089      0.4643691       0.0000000
O         0.7587847      0.5358101      0.0665792       0.0000000
O         0.2212622      0.5358039      0.4643687       0.0000000
O         0.0567965      0.8574110      0.3030750       0.0000000
O         0.9232436      0.8574095      0.2279045       0.0000000
O         0.5567986      0.6074119      0.3030634       0.0000000
O         0.4232458      0.6074089      0.2278930       0.0000000
O         0.2381659      0.9161028      0.0243836       0.0000000
O         0.7418655      0.9160868      0.5066088       0.0000000
O         0.7381699      0.6661009      0.0243690       0.0000000
O         0.2418693      0.6660889      0.5065944       0.0000000
O         0.9900196      0.7965409      0.2654912       0.0000000
O         0.4900218      0.5465410      0.2654794       0.0000000
O         0.8728405      0.9102466      0.4617078       0.0000000
O         0.1071927      0.9102492      0.0692818       0.0000000
O         0.3728447      0.6602479      0.4616929       0.0000000
O         0.6071972      0.6602479      0.0692666       0.0000000
O         0.8314320      0.6571773      0.2942238       0.0000000
O         0.1486116      0.6571804      0.2367375       0.0000000
O         0.3314257      0.9071804      0.2942384       0.0000000
O         0.6486052      0.9071774      0.2367523       0.0000000
O         0.9900191      0.6314299      0.0154798       0.0000000
O         0.4900199      0.8814299      0.0154949       0.0000000
Si        0.2140020      0.7294163      0.8566335       0.0000000
Si        0.7660329      0.7294104      0.6743432       0.0000000
Si        0.7140062      0.9794161      0.8566293       0.0000000
Si        0.2660373      0.9794106      0.6743388       0.0000000
Si        0.1930330      0.8680304      0.6427363       0.0000000
Si        0.7870093      0.8680329      0.8882357       0.0000000
Si        0.6930336      0.6180341      0.6427283       0.0000000
Si        0.2870098      0.6180292      0.8882276       0.0000000
Si        0.9489754      0.8333194      0.8861487       0.0000000
Si        0.0310631      0.8333188      0.6448354       0.0000000
Si        0.4489780      0.5833192      0.8861354       0.0000000
Si        0.5310656      0.5833190      0.6448221       0.0000000
Si        0.7241284      0.6924099      0.9632519       0.0000000
Si        0.2559130      0.6924065      0.5677062       0.0000000
Si        0.2241239      0.9424113      0.9632670       0.0000000
Si        0.7559087      0.9424050      0.5677211       0.0000000
Si        0.1229101      0.6301156      0.8444949       0.0000000
Si        0.8571308      0.6301070      0.6864706       0.0000000
Si        0.6229082      0.8801081      0.8445038       0.0000000
Si        0.3571290      0.8801146      0.6864795       0.0000000
O         0.2597259      0.6632857      0.8522626       0.0000000
O         0.7203179      0.6632884      0.6786934       0.0000000
O         0.7597358      0.9133007      0.8522632       0.0000000
O         0.2203278      0.9132736      0.6786940       0.0000000
O         0.1872256      0.6910310      0.8164692       0.0000000
O         0.7927948      0.6910124      0.7145211       0.0000000
O         0.6872421      0.9410139      0.8164562       0.0000000
O         0.2928114      0.9410295      0.7145080       0.0000000
O         0.3123230      0.7927178      0.7269848       0.0000000
O         0.6677080      0.7927083      0.8039984       0.0000000
O         0.8123341      0.5427064      0.7269725       0.0000000
O         0.1677195      0.5427198      0.8039857       0.0000000
O         0.1005275      0.7679655      0.5220617       0.0000000
O         0.8795134      0.7679657      0.5089213       0.0000000
O         0.6005240      0.0179669      0.5220557       0.0000000
O         0.3795108      0.0179657      0.5089161       0.0000000
O         0.2587816      0.7858051      0.5665801       0.0000000
O         0.7212591      0.7858089      0.9643695       0.0000000
O         0.7587852      0.5358101      0.5665787       0.0000000
O         0.2212626      0.5358039      0.9643683       0.0000000
O         0.0567967      0.8574120      0.8030751       0.0000000
O         0.9232438      0.8574087      0.7279047       0.0000000
O         0.5567985      0.6074108      0.8030633       0.0000000
O         0.4232456      0.6074097      0.7278928       0.0000000
O         0.2381664      0.9161029      0.5243829       0.0000000
O         0.7418658      0.9160869      0.0066083       0.0000000
O         0.7381694      0.6661008      0.5243696       0.0000000
O         0.2418689      0.6660890      0.0065948       0.0000000
O         0.9900200      0.7965410      0.7654914       0.0000000
O         0.4900214      0.5465409      0.7654791       0.0000000
O         0.8728404      0.9102468      0.9617079       0.0000000
O         0.1071928      0.9102489      0.5692817       0.0000000
O         0.3728448      0.6602476      0.9616927       0.0000000
O         0.6071972      0.6602481      0.5692666       0.0000000
O         0.8314321      0.6571775      0.7942236       0.0000000
O         0.1486116      0.6571802      0.7367374       0.0000000
O         0.3314255      0.9071801      0.7942388       0.0000000
O         0.6486053      0.9071776      0.7367523       0.0000000
O         0.9900191      0.6314299      0.5154798       0.0000000
O         0.4900200      0.8814300      0.5154950       0.0000000
space
 1
supercell 1 1 1
species
O  core  O  core
O  shel  O  shel
Si core  Si core
library catlow nodump
output cif ReferenceDataBase/8049967_122_opt
dump every 1 ReferenceDataBase/8049967_122.grs
