opti conv nosymm shellonly
name     ReferenceDataBase/8078629_111
switch_min rfo gnorm 0.08
cuts 1.1
stepmx opt 0.1
switch_stepmx 0.3 gnorm 0.005
maxcyc 500
cell
 13.28800  13.28800  13.28800  75.85310  75.85310  75.85310
fractional
Si        0.3547613      0.8878267      0.5465139       0.0000000
Si        0.1162541      0.3115811      0.4955597       0.0000000
O         0.2814989      0.0049293      0.5335205       0.0000000
O         0.4064062      0.8601034      0.6500385       0.0000000
O         0.2881300      0.8000258      0.5513343       0.0000000
Si        0.4981842      0.6995593      0.3031840       0.0000000
O         0.4477288      0.8886539      0.4460433       0.0000000
O         0.5848666      0.5929269      0.3128597       0.0000000
O         0.1939247      0.2019850      0.4782592       0.0000000
O         0.1295598      0.3962017      0.3864559       0.0000000
Si        0.5481994      0.3628216      0.8780810       0.0000000
Si        0.4972451      0.1243144      0.3018353       0.0000000
O         0.5352059      0.2895592      0.9951836       0.0000000
O         0.6517239      0.4144665      0.8503577       0.0000000
O         0.5530197      0.2961903      0.7902800       0.0000000
Si        0.3048694      0.5062445      0.6898135       0.0000000
O         0.4477288      0.4557891      0.8789081       0.0000000
O         0.3145451      0.5929269      0.5831811       0.0000000
O         0.4799446      0.2019850      0.1922392       0.0000000
O         0.3881414      0.1376202      0.3864559       0.0000000
Si        0.8797665      0.5562596      0.3530759       0.0000000
Si        0.3035208      0.5053055      0.1145686       0.0000000
O         0.9968690      0.5432662      0.2798134       0.0000000
O         0.8520431      0.6597842      0.4047208       0.0000000
O         0.7919655      0.5610800      0.2864445       0.0000000
Si        0.6914989      0.3129297      0.4964987       0.0000000
O         0.8805936      0.4557891      0.4460433       0.0000000
O         0.5848665      0.3226054      0.5831811       0.0000000
O         0.1939247      0.4880050      0.1922392       0.0000000
O         0.3881414      0.3962017      0.1278744       0.0000000
Si        0.1166019      0.6496674      0.4464836       0.0000000
Si        0.6928476      0.8881746      0.4974378       0.0000000
O         0.9994994      0.7229298      0.4594770       0.0000000
O         0.1443253      0.5980225      0.3429590       0.0000000
O         0.2044029      0.7162987      0.4416633       0.0000000
O         0.1157748      0.5566999      0.5469542       0.0000000
O         0.4115019      0.4195622      0.6801378       0.0000000
O         0.8024437      0.8105040      0.5147383       0.0000000
O         0.6082270      0.8748689      0.6065416       0.0000000
Si        0.4481691      0.1246623      0.6399216       0.0000000
Si        0.4991233      0.7009079      0.8784288       0.0000000
O         0.4611625      0.0075597      0.7131841       0.0000000
O         0.3446445      0.1523856      0.5882767       0.0000000
O         0.4433487      0.2124632      0.7065529       0.0000000
O         0.5486396      0.1238352      0.5469542       0.0000000
O         0.6818233      0.4195622      0.4098164       0.0000000
O         0.5164238      0.8105040      0.8007582       0.0000000
O         0.6082270      0.6162873      0.8651231       0.0000000
Si        0.6416071      0.4562294      0.1149165       0.0000000
Si        0.8801143      0.5071836      0.6911622       0.0000000
O         0.7148696      0.4692228      0.9978139       0.0000000
O         0.5899622      0.3527048      0.1426398       0.0000000
O         0.7082384      0.4514090      0.2027175       0.0000000
O         0.5486396      0.5566999      0.1140894       0.0000000
O         0.4115019      0.6898836      0.4098164       0.0000000
O         0.8024437      0.5244840      0.8007582       0.0000000
O         0.8668086      0.6162874      0.6065416       0.0000000
Si        0.6416071      0.1246623      0.4464836       0.0000000
Si        0.8801143      0.7009079      0.4974378       0.0000000
O         0.7148696      0.0075597      0.4594770       0.0000000
O         0.5899622      0.1523856      0.3429590       0.0000000
O         0.7082384      0.2124632      0.4416632       0.0000000
Si        0.4981842      0.3129297      0.6898135       0.0000000
Si        0.4481691      0.6496674      0.1149165       0.0000000
Si        0.4991233      0.8881746      0.6911622       0.0000000
O         0.4611625      0.7229298      0.9978139       0.0000000
O         0.3446445      0.5980225      0.1426398       0.0000000
O         0.4433487      0.7162987      0.2027175       0.0000000
Si        0.6914989      0.5062445      0.3031840       0.0000000
Si        0.1166019      0.4562294      0.6399216       0.0000000
Si        0.6928476      0.5071836      0.8784289       0.0000000
O         0.9994994      0.4692228      0.7131841       0.0000000
O         0.1443253      0.3527048      0.5882767       0.0000000
O         0.2044029      0.4514090      0.7065529       0.0000000
Si        0.3048694      0.6995593      0.4964987       0.0000000
Si        0.8797665      0.3628216      0.5465139       0.0000000
Si        0.3035208      0.1243144      0.4955597       0.0000000
O         0.9968690      0.2895592      0.5335205       0.0000000
O         0.8520431      0.4144665      0.6500384       0.0000000
O         0.7919655      0.2961903      0.5513342       0.0000000
Si        0.5481994      0.8878267      0.3530759       0.0000000
Si        0.4972451      0.3115811      0.1145686       0.0000000
O         0.5352059      0.0049293      0.2798134       0.0000000
O         0.6517239      0.8601034      0.4047208       0.0000000
O         0.5530197      0.8000258      0.2864445       0.0000000
Si        0.3547613      0.5562597      0.8780810       0.0000000
Si        0.1162541      0.5053054      0.3018353       0.0000000
O         0.2814989      0.5432662      0.9951835       0.0000000
O         0.4064062      0.6597843      0.8503577       0.0000000
O         0.2881300      0.5610800      0.7902800       0.0000000
space
 1
supercell 1 1 1
species
O  core  O  core
O  shel  O  shel
Si core  Si core
library catlow nodump
output cif ReferenceDataBase/8078629_111_opt
dump every 1 ReferenceDataBase/8078629_111.grs
