opti conv nosymm shellonly
name     ReferenceDataBase/8133379_111
switch_min rfo gnorm 0.08
cuts 1.1
stepmx opt 0.1
switch_stepmx 0.3 gnorm 0.005
maxcyc 500
cell
 15.79660  17.15420  12.54940  90.00000  54.84150  90.00000
fractional
Si        0.8387312      0.0184188      0.1235806       0.0000000
Si        0.1654088      0.0184188      0.3712595       0.0000000
Si        0.1654088      0.9775999      0.8712595       0.0000000
Si        0.8387312      0.9775999      0.6235806       0.0000000
Si        0.3387312      0.5184188      0.1235806       0.0000000
Si        0.6654088      0.5184188      0.3712595       0.0000000
Si        0.6654088      0.4775998      0.8712595       0.0000000
Si        0.3387312      0.4775998      0.6235806       0.0000000
Si        0.2533849      0.3720477      0.0745759       0.0000000
Si        0.7507551      0.3720477      0.4202641       0.0000000
Si        0.7507551      0.6239709      0.9202641       0.0000000
Si        0.2533849      0.6239709      0.5745758       0.0000000
Si        0.7533849      0.8720477      0.0745759       0.0000000
Si        0.2507551      0.8720477      0.4202641       0.0000000
Si        0.2507551      0.1239709      0.9202641       0.0000000
Si        0.7533849      0.1239709      0.5745758       0.0000000
Si        0.7535082      0.6418249      0.1620572       0.0000000
Si        0.2506319      0.6418249      0.3327828       0.0000000
Si        0.2506319      0.3541937      0.8327827       0.0000000
Si        0.7535082      0.3541937      0.6620572       0.0000000
Si        0.2535081      0.1418249      0.1620572       0.0000000
Si        0.7506319      0.1418249      0.3327828       0.0000000
Si        0.7506319      0.8541937      0.8327827       0.0000000
Si        0.2535081      0.8541937      0.6620572       0.0000000
Si        0.9213206      0.2643742      0.2122819       0.0000000
Si        0.0828195      0.2643742      0.2825581       0.0000000
Si        0.0828195      0.7316444      0.7825581       0.0000000
Si        0.9213206      0.7316444      0.7122819       0.0000000
Si        0.4213205      0.7643742      0.2122819       0.0000000
Si        0.5828195      0.7643742      0.2825581       0.0000000
Si        0.5828195      0.2316444      0.7825581       0.0000000
Si        0.4213205      0.2316444      0.7122819       0.0000000
Si        0.0889278      0.2296974      0.9346418       0.0000000
Si        0.9152122      0.2296974      0.5601982       0.0000000
Si        0.9152122      0.7663212      0.0601982       0.0000000
Si        0.0889278      0.7663212      0.4346418       0.0000000
Si        0.5889279      0.7296974      0.9346418       0.0000000
Si        0.4152122      0.7296974      0.5601982       0.0000000
Si        0.4152122      0.2663212      0.0601982       0.0000000
Si        0.5889279      0.2663212      0.4346418       0.0000000
Si        0.5125768      0.4063514      0.3647921       0.0000000
Si        0.4915632      0.4063514      0.1300479       0.0000000
Si        0.4915632      0.5896673      0.6300479       0.0000000
Si        0.5125768      0.5896673      0.8647921       0.0000000
Si        0.0125768      0.9063513      0.3647921       0.0000000
Si        0.9915633      0.9063513      0.1300479       0.0000000
Si        0.9915633      0.0896673      0.6300479       0.0000000
Si        0.0125768      0.0896673      0.8647921       0.0000000
O         0.7573274      0.0653361      0.2552030       0.0000000
O         0.2468126      0.0653361      0.2396370       0.0000000
O         0.2468126      0.9306825      0.7396370       0.0000000
O         0.7573274      0.9306825      0.7552030       0.0000000
O         0.2573274      0.5653360      0.2552030       0.0000000
O         0.7468125      0.5653360      0.2396370       0.0000000
O         0.7468125      0.4306825      0.7396370       0.0000000
O         0.2573274      0.4306825      0.7552030       0.0000000
O         0.7740716      0.9596589      0.0969274       0.0000000
O         0.2300684      0.9596589      0.3979127       0.0000000
O         0.2300684      0.0363598      0.8979126       0.0000000
O         0.7740716      0.0363598      0.5969273       0.0000000
O         0.2740716      0.4596588      0.0969274       0.0000000
O         0.7300684      0.4596588      0.3979127       0.0000000
O         0.7300684      0.5363598      0.8979126       0.0000000
O         0.2740716      0.5363598      0.5969273       0.0000000
O         0.9150638      0.9739755      0.1476881       0.0000000
O         0.0890762      0.9739755      0.3471519       0.0000000
O         0.0890762      0.0220431      0.8471519       0.0000000
O         0.9150638      0.0220431      0.6476881       0.0000000
O         0.4150638      0.4739756      0.1476881       0.0000000
O         0.5890762      0.4739756      0.3471519       0.0000000
O         0.5890762      0.5220430      0.8471519       0.0000000
O         0.4150638      0.5220430      0.6476881       0.0000000
O         0.9018625      0.0776362      0.0020120       0.0000000
O         0.1022775      0.0776362      0.4928280       0.0000000
O         0.1022775      0.9183824      0.9928281       0.0000000
O         0.9018625      0.9183824      0.5020120       0.0000000
O         0.4018625      0.5776362      0.0020120       0.0000000
O         0.6022775      0.5776362      0.4928280       0.0000000
O         0.6022775      0.4183824      0.9928281       0.0000000
O         0.4018625      0.4183824      0.5020120       0.0000000
O         0.1627621      0.3360105      0.2138787       0.0000000
O         0.8413779      0.3360105      0.2809613       0.0000000
O         0.8413779      0.6600081      0.7809613       0.0000000
O         0.1627621      0.6600081      0.7138786       0.0000000
O         0.6627622      0.8360105      0.2138787       0.0000000
O         0.3413779      0.8360105      0.2809613       0.0000000
O         0.3413779      0.1600082      0.7809613       0.0000000
O         0.6627622      0.1600082      0.7138786       0.0000000
O         0.3563994      0.3185923      0.0126544       0.0000000
O         0.6477407      0.3185923      0.4821856       0.0000000
O         0.6477407      0.6774263      0.9821856       0.0000000
O         0.3563994      0.6774263      0.5126544       0.0000000
O         0.8563994      0.8185923      0.0126544       0.0000000
O         0.1477406      0.8185923      0.4821856       0.0000000
O         0.1477406      0.1774263      0.9821856       0.0000000
O         0.8563994      0.1774263      0.5126544       0.0000000
O         0.2174037      0.3738906      0.9779878       0.0000000
O         0.7867363      0.3738906      0.5168521       0.0000000
O         0.7867363      0.6221280      0.0168522       0.0000000
O         0.2174037      0.6221280      0.4779878       0.0000000
O         0.7174037      0.8738906      0.9779878       0.0000000
O         0.2867363      0.8738906      0.5168521       0.0000000
O         0.2867363      0.1221280      0.0168522       0.0000000
O         0.7174037      0.1221280      0.4779878       0.0000000
O         0.6416691      0.6821352      0.2395387       0.0000000
O         0.3624709      0.6821352      0.2553013       0.0000000
O         0.3624709      0.3138835      0.7553012       0.0000000
O         0.6416691      0.3138835      0.7395387       0.0000000
O         0.1416691      0.1821352      0.2395387       0.0000000
O         0.8624709      0.1821352      0.2553013       0.0000000
O         0.8624709      0.8138834      0.7553012       0.0000000
O         0.1416691      0.8138834      0.7395387       0.0000000
O         0.8390391      0.6978821      0.1541834       0.0000000
O         0.1651008      0.6978821      0.3406566       0.0000000
O         0.1651008      0.2981366      0.8406566       0.0000000
O         0.8390391      0.2981366      0.6541834       0.0000000
O         0.3390391      0.1978820      0.1541834       0.0000000
O         0.6651009      0.1978820      0.3406566       0.0000000
O         0.6651009      0.7981366      0.8406566       0.0000000
O         0.3390391      0.7981366      0.6541834       0.0000000
O         0.0020700      0.2673497      0.2474200       0.0000000
O         0.0020700      0.7286689      0.7474200       0.0000000
O         0.5020700      0.7673497      0.2474200       0.0000000
O         0.5020700      0.2286689      0.7474200       0.0000000
O         0.9852322      0.2692125      0.0561804       0.0000000
O         0.0189078      0.2692125      0.4386596       0.0000000
O         0.0189078      0.7268061      0.9386596       0.0000000
O         0.9852322      0.7268061      0.5561804       0.0000000
O         0.4852322      0.7692125      0.0561804       0.0000000
O         0.5189078      0.7692125      0.4386596       0.0000000
O         0.5189078      0.2268061      0.9386596       0.0000000
O         0.4852322      0.2268061      0.5561804       0.0000000
O         0.0588788      0.1747302      0.8575169       0.0000000
O         0.9452612      0.1747302      0.6373230       0.0000000
O         0.9452612      0.8212885      0.1373231       0.0000000
O         0.0588788      0.8212885      0.3575169       0.0000000
O         0.5588788      0.6747302      0.8575169       0.0000000
O         0.4452612      0.6747302      0.6373231       0.0000000
O         0.4452612      0.3212884      0.1373231       0.0000000
O         0.5588788      0.3212884      0.3575169       0.0000000
O         0.5020700      0.4142786      0.2474200       0.0000000
O         0.5020700      0.5817400      0.7474200       0.0000000
O         0.0020700      0.9142786      0.2474200       0.0000000
O         0.0020700      0.0817400      0.7474200       0.0000000
space
 1
supercell 1 1 1
species
O  core  O  core
O  shel  O  shel
Si core  Si core
library catlow nodump
output cif ReferenceDataBase/8133379_111_opt
dump every 1 ReferenceDataBase/8133379_111.grs
