opti conv nosymm shellonly
name     ReferenceDataBase/8194023_111
switch_min rfo gnorm 0.08
cuts 1.1
stepmx opt 0.1
switch_stepmx 0.3 gnorm 0.005
maxcyc 500
cell
 13.54650  21.21320  11.69370  90.00000  90.00000  90.00000
fractional
Si        0.2110064      0.1250730      0.3670854       0.0000000
Si        0.8866685      0.2496439      0.3676617       0.0000000
Si        0.6081234      0.1925495      0.2476801       0.0000000
Si        0.6105871      0.5702194      0.2416089       0.0000000
Si        0.2973843      0.3119543      0.6370629       0.0000000
O         0.1358253      0.1800450      0.3301551       0.0000000
O         0.3166067      0.1379836      0.3083578       0.0000000
O         0.1649220      0.0599090      0.3219957       0.0000000
O         0.8045584      0.3004100      0.3294178       0.0000000
O         0.6490646      0.5864862      0.1145511       0.0000000
O         0.6436552      0.1966532      0.1156155       0.0000000
O         0.6210547      0.2610341      0.3058256       0.0000000
O         0.6621299      0.6152590      0.3336500       0.0000000
Si        0.6113467      0.6230422      0.0023343       0.0000000
Si        0.3775704      0.2340244      0.0023343       0.0000000
O         0.6567255      0.6933976      0.0023343       0.0000000
Si        0.8823660      0.9988745      0.6383935       0.0000000
O         0.2287258      0.1240008      0.5023343       0.0000000
O         0.8978938      0.2511292      0.5023343       0.0000000
O         0.3108145      0.3023187      0.5023343       0.0000000
O         0.9940583      0.2644887      0.3116091       0.0000000
O         0.4940582      0.6242886      0.0023343       0.0000000
O         0.4940582      0.2427886      0.0023343       0.0000000
O         0.4940582      0.1728211      0.2569571       0.0000000
O         0.4940582      0.5800557      0.2504093       0.0000000
O         0.8875552      0.9988745      0.5023343       0.0000000
O         0.9940583      0.9988745      0.6876130       0.0000000
O         0.6407866      0.4988745      0.2715569       0.0000000
Si        0.7771100      0.8726760      0.3670855       0.0000000
Si        0.1014479      0.7481050      0.3676617       0.0000000
Si        0.3799930      0.8051994      0.2476801       0.0000000
Si        0.3775292      0.4275295      0.2416088       0.0000000
Si        0.6907321      0.6857947      0.6370630       0.0000000
O         0.8522910      0.8177039      0.3301550       0.0000000
O         0.6715097      0.8597654      0.3083579       0.0000000
O         0.8231944      0.9378399      0.3219957       0.0000000
O         0.1835580      0.6973390      0.3294177       0.0000000
O         0.3390518      0.4112628      0.1145510       0.0000000
O         0.3444612      0.8010958      0.1156154       0.0000000
O         0.3670617      0.7367148      0.3058255       0.0000000
O         0.3259864      0.3824899      0.3336499       0.0000000
Si        0.3767697      0.3747067      0.0023343       0.0000000
Si        0.6105461      0.7637246      0.0023343       0.0000000
O         0.3313909      0.3043514      0.0023343       0.0000000
Si        0.1057504      0.9988744      0.6383934       0.0000000
O         0.7593907      0.8737482      0.5023344       0.0000000
O         0.0902226      0.7466196      0.5023343       0.0000000
O         0.6773018      0.6954303      0.5023344       0.0000000
O         0.9940581      0.7332602      0.3116091       0.0000000
O         0.4940582      0.3734603      0.0023343       0.0000000
O         0.4940582      0.7549604      0.0023343       0.0000000
O         0.4940581      0.8249278      0.2569571       0.0000000
O         0.4940582      0.4176933      0.2504093       0.0000000
O         0.1005612      0.9988744      0.5023343       0.0000000
O         0.3473297      0.4988744      0.2715568       0.0000000
Si        0.2110064      0.8726760      0.6375830       0.0000000
Si        0.8866685      0.7481052      0.6370069       0.0000000
Si        0.6081233      0.8051995      0.7569886       0.0000000
Si        0.6105872      0.4275296      0.7630597       0.0000000
Si        0.2973841      0.6857946      0.3676055       0.0000000
O         0.1358249      0.8177039      0.6745125       0.0000000
O         0.3166065      0.8597652      0.6963109       0.0000000
O         0.1649220      0.9378399      0.6826730       0.0000000
O         0.8045585      0.6973389      0.6752499       0.0000000
O         0.6490647      0.4112629      0.8901176       0.0000000
O         0.6436551      0.8010960      0.8890532       0.0000000
O         0.6210549      0.7367150      0.6988434       0.0000000
O         0.6621301      0.3824900      0.6710187       0.0000000
Si        0.6113467      0.3747068      0.0023343       0.0000000
Si        0.3775703      0.7637244      0.0023343       0.0000000
O         0.6567256      0.3043515      0.0023343       0.0000000
Si        0.8823660      0.9988745      0.3662752       0.0000000
O         0.2287262      0.8737485      0.5023343       0.0000000
O         0.8978942      0.7466210      0.5023343       0.0000000
O         0.3108138      0.6954302      0.5023343       0.0000000
O         0.9940582      0.7332602      0.6930594       0.0000000
O         0.4940582      0.8249278      0.7477115       0.0000000
O         0.4940583      0.4176933      0.7542593       0.0000000
O         0.9940582      0.9988745      0.3170556       0.0000000
O         0.6407867      0.4988745      0.7331118       0.0000000
Si        0.7771101      0.1250730      0.6375831       0.0000000
Si        0.1014480      0.2496437      0.6370069       0.0000000
Si        0.3799931      0.1925494      0.7569885       0.0000000
Si        0.3775292      0.5702193      0.7630597       0.0000000
Si        0.6907322      0.3119543      0.3676056       0.0000000
O         0.8522915      0.1800450      0.6745126       0.0000000
O         0.6715100      0.1379838      0.6963110       0.0000000
O         0.8231945      0.0599091      0.6826730       0.0000000
O         0.1835579      0.3004101      0.6752499       0.0000000
O         0.3390518      0.5864860      0.8901175       0.0000000
O         0.3444613      0.1966530      0.8890531       0.0000000
O         0.3670616      0.2610340      0.6988432       0.0000000
O         0.3259864      0.6152589      0.6710186       0.0000000
Si        0.3767697      0.6230421      0.0023343       0.0000000
Si        0.6105461      0.2340245      0.0023343       0.0000000
O         0.3313908      0.6933975      0.0023343       0.0000000
Si        0.1057504      0.9988744      0.3662752       0.0000000
O         0.7593902      0.1240005      0.5023344       0.0000000
O         0.0902223      0.2511281      0.5023343       0.0000000
O         0.6773025      0.3023188      0.5023344       0.0000000
O         0.9940583      0.2644887      0.6930594       0.0000000
O         0.4940583      0.1728211      0.7477115       0.0000000
O         0.4940582      0.5800557      0.7542593       0.0000000
O         0.3473297      0.4988744      0.7331117       0.0000000
Si        0.7771100      0.8726760      0.6375832       0.0000000
Si        0.1014479      0.7481050      0.6370069       0.0000000
Si        0.3799931      0.8051994      0.7569885       0.0000000
Si        0.3775293      0.4275295      0.7630597       0.0000000
Si        0.6907321      0.6857947      0.3676057       0.0000000
O         0.8522911      0.8177039      0.6745136       0.0000000
O         0.6715097      0.8597654      0.6963108       0.0000000
O         0.8231944      0.9378399      0.6826729       0.0000000
O         0.1835580      0.6973390      0.6752508       0.0000000
O         0.3390518      0.4112628      0.8901175       0.0000000
O         0.3444612      0.8010957      0.8890531       0.0000000
O         0.3670617      0.7367148      0.6988430       0.0000000
O         0.3259865      0.3824899      0.6710186       0.0000000
Si        0.2110064      0.1250730      0.6375831       0.0000000
Si        0.8866686      0.2496439      0.6370069       0.0000000
Si        0.6081234      0.1925495      0.7569885       0.0000000
Si        0.6105872      0.5702194      0.7630598       0.0000000
Si        0.2973843      0.3119543      0.3676056       0.0000000
O         0.1358254      0.1800450      0.6745135       0.0000000
O         0.3166067      0.1379836      0.6963108       0.0000000
O         0.1649220      0.0599090      0.6826729       0.0000000
O         0.8045585      0.3004100      0.6752508       0.0000000
O         0.6490646      0.5864862      0.8901176       0.0000000
O         0.6436552      0.1966532      0.8890532       0.0000000
O         0.6210548      0.2610341      0.6988431       0.0000000
O         0.6621300      0.6152590      0.6710187       0.0000000
Si        0.7771100      0.1250730      0.3670856       0.0000000
Si        0.1014479      0.2496437      0.3676617       0.0000000
Si        0.3799931      0.1925494      0.2476801       0.0000000
Si        0.3775292      0.5702193      0.2416089       0.0000000
Si        0.6907323      0.3119543      0.6370631       0.0000000
O         0.8522915      0.1800450      0.3301561       0.0000000
O         0.6715099      0.1379838      0.3083577       0.0000000
O         0.8231944      0.0599091      0.3219956       0.0000000
O         0.1835579      0.3004101      0.3294186       0.0000000
O         0.3390518      0.5864860      0.1145510       0.0000000
O         0.3444613      0.1966530      0.1156154       0.0000000
O         0.3670615      0.2610340      0.3058253       0.0000000
O         0.3259864      0.6152589      0.3336499       0.0000000
Si        0.2110063      0.8726760      0.3670855       0.0000000
Si        0.8866684      0.7481052      0.3676617       0.0000000
Si        0.6081232      0.8051995      0.2476801       0.0000000
Si        0.6105872      0.4275296      0.2416089       0.0000000
Si        0.2973842      0.6857946      0.6370630       0.0000000
O         0.1358248      0.8177039      0.3301561       0.0000000
O         0.3166064      0.8597652      0.3083576       0.0000000
O         0.1649219      0.9378398      0.3219956       0.0000000
O         0.8045585      0.6973389      0.3294187       0.0000000
O         0.6490646      0.4112629      0.1145511       0.0000000
O         0.6436551      0.8010960      0.1156155       0.0000000
O         0.6210548      0.7367150      0.3058253       0.0000000
O         0.6621300      0.3824900      0.3336500       0.0000000
space
 1
supercell 1 1 1
species
O  core  O  core
O  shel  O  shel
Si core  Si core
library catlow nodump
output cif ReferenceDataBase/8194023_111_opt
dump every 1 ReferenceDataBase/8194023_111.grs
