opti conv nosymm shellonly
name     ReferenceDataBase/8268600_111
switch_min rfo gnorm 0.08
cuts 1.1
stepmx opt 0.1
switch_stepmx 0.3 gnorm 0.005
maxcyc 500
cell
 13.35130  20.66420  22.35520  90.00000  90.00000  90.00000
fractional
Si        0.6970467      0.1372429      0.3918025       0.0000000
Si        0.3029532      0.8447875      0.3918027       0.0000000
Si        0.1970468      0.3447876      0.6147417       0.0000000
Si        0.8029532      0.6372429      0.6147417       0.0000000
Si        0.8029532      0.3447876      0.6147417       0.0000000
Si        0.1970468      0.6372429      0.6147417       0.0000000
Si        0.3029533      0.1372429      0.3918025       0.0000000
Si        0.6970468      0.8447875      0.3918027       0.0000000
Si        0.6984299      0.8418294      0.6188824       0.0000000
Si        0.3015701      0.1402010      0.6188824       0.0000000
Si        0.1984300      0.6402010      0.3876619       0.0000000
Si        0.8015701      0.3418294      0.3876619       0.0000000
Si        0.8015700      0.6402010      0.3876619       0.0000000
Si        0.1984299      0.3418294      0.3876619       0.0000000
Si        0.3015700      0.8418294      0.6188824       0.0000000
Si        0.6984299      0.1402010      0.6188824       0.0000000
Si        0.1951713      0.6490104      0.8276197       0.0000000
Si        0.8048287      0.3330200      0.8276197       0.0000000
Si        0.6951712      0.8330200      0.1789247       0.0000000
Si        0.3048286      0.1490104      0.1789245       0.0000000
Si        0.3048288      0.8330200      0.1789247       0.0000000
Si        0.6951714      0.1490104      0.1789245       0.0000000
Si        0.8048288      0.6490104      0.8276197       0.0000000
Si        0.1951713      0.3330200      0.8276197       0.0000000
Si        0.1962344      0.3468181      0.1748580       0.0000000
Si        0.8037658      0.6352125      0.1748581       0.0000000
Si        0.6962343      0.1352124      0.8316863       0.0000000
Si        0.3037657      0.8468180      0.8316863       0.0000000
Si        0.3037657      0.1352124      0.8316863       0.0000000
Si        0.6962342      0.8468180      0.8316863       0.0000000
Si        0.8037657      0.3468181      0.1748580       0.0000000
Si        0.1962342      0.6352125      0.1748581       0.0000000
Si        0.3870411      0.7109026      0.3536351       0.0000000
Si        0.6129590      0.2711278      0.3536350       0.0000000
Si        0.8870411      0.7711278      0.6529092       0.0000000
Si        0.1129589      0.2109026      0.6529092       0.0000000
Si        0.1129589      0.7711278      0.6529092       0.0000000
Si        0.8870411      0.2109026      0.6529092       0.0000000
Si        0.6129589      0.7109026      0.3536351       0.0000000
Si        0.3870411      0.2711278      0.3536350       0.0000000
Si        0.3873024      0.2725020      0.6447393       0.0000000
Si        0.6126976      0.7095284      0.6447392       0.0000000
Si        0.8873024      0.2095284      0.3618049       0.0000000
Si        0.1126976      0.7725019      0.3618051       0.0000000
Si        0.1126976      0.2095284      0.3618049       0.0000000
Si        0.8873024      0.7725019      0.3618051       0.0000000
Si        0.6126976      0.2725020      0.6447393       0.0000000
Si        0.3873024      0.7095284      0.6447392       0.0000000
Si        0.8818244      0.5667412      0.4992661       0.0000000
Si        0.1181756      0.4152892      0.4992662       0.0000000
Si        0.3818244      0.9152892      0.5072782       0.0000000
Si        0.6181756      0.0667412      0.5072781       0.0000000
Si        0.6181756      0.9152892      0.5072782       0.0000000
Si        0.3818244      0.0667412      0.5072781       0.0000000
Si        0.1181756      0.5667412      0.4992661       0.0000000
Si        0.8818244      0.4152892      0.4992662       0.0000000
Si        0.1161597      0.4171994      0.0669251       0.0000000
Si        0.8838403      0.5648311      0.0669251       0.0000000
Si        0.6161597      0.0648310      0.9396191       0.0000000
Si        0.3838403      0.9171993      0.9396192       0.0000000
Si        0.3838404      0.0648310      0.9396191       0.0000000
Si        0.6161597      0.9171993      0.9396192       0.0000000
Si        0.8838403      0.4171994      0.0669251       0.0000000
Si        0.1161597      0.5648311      0.0669251       0.0000000
Si        0.1159062      0.5653847      0.9292592       0.0000000
Si        0.8840938      0.4166457      0.9292592       0.0000000
Si        0.6159062      0.9166457      0.0772852       0.0000000
Si        0.3840938      0.0653847      0.0772851       0.0000000
Si        0.3840937      0.9166457      0.0772852       0.0000000
Si        0.6159062      0.0653847      0.0772851       0.0000000
Si        0.8840938      0.5653847      0.9292592       0.0000000
Si        0.1159062      0.4166457      0.9292592       0.0000000
Si        0.1149817      0.5645700      0.7214274       0.0000000
Si        0.8850183      0.4174604      0.7214274       0.0000000
Si        0.6149817      0.9174604      0.2851170       0.0000000
Si        0.3850181      0.0645699      0.2851167       0.0000000
Si        0.3850183      0.9174604      0.2851170       0.0000000
Si        0.6149819      0.0645699      0.2851167       0.0000000
Si        0.8850183      0.5645700      0.7214274       0.0000000
Si        0.1149817      0.4174604      0.7214274       0.0000000
Si        0.1136543      0.4164630      0.2810465       0.0000000
Si        0.8863457      0.5655675      0.2810466       0.0000000
Si        0.6136543      0.0655675      0.7254977       0.0000000
Si        0.3863457      0.9164629      0.7254978       0.0000000
Si        0.3863457      0.0655675      0.7254977       0.0000000
Si        0.6136543      0.9164629      0.7254978       0.0000000
Si        0.8863457      0.4164630      0.2810465       0.0000000
Si        0.1136543      0.5655675      0.2810466       0.0000000
Si        0.6145742      0.7131326      0.7851462       0.0000000
Si        0.3854258      0.2688978      0.7851463       0.0000000
Si        0.1145742      0.7688979      0.2213981       0.0000000
Si        0.8854258      0.2131327      0.2213979       0.0000000
Si        0.8854258      0.7688979      0.2213981       0.0000000
Si        0.1145742      0.2131327      0.2213979       0.0000000
Si        0.3854258      0.7131326      0.7851462       0.0000000
Si        0.6145742      0.2688978      0.7851463       0.0000000
Si        0.6141643      0.2824255      0.2136117       0.0000000
Si        0.3858357      0.6996048      0.2136117       0.0000000
Si        0.1141643      0.1996049      0.7929326       0.0000000
Si        0.8858357      0.7824256      0.7929326       0.0000000
Si        0.8858357      0.1996049      0.7929326       0.0000000
Si        0.1141643      0.7824256      0.7929326       0.0000000
Si        0.3858357      0.2824255      0.2136117       0.0000000
Si        0.6141643      0.6996048      0.2136117       0.0000000
O         0.6277043      0.1987907      0.3777605       0.0000000
O         0.3722957      0.7832397      0.3777605       0.0000000
O         0.1277043      0.2832397      0.6287838       0.0000000
O         0.8722957      0.6987907      0.6287838       0.0000000
O         0.8722957      0.2832397      0.6287838       0.0000000
O         0.1277044      0.6987907      0.6287838       0.0000000
O         0.3722957      0.1987907      0.3777605       0.0000000
O         0.6277043      0.7832397      0.3777605       0.0000000
O         0.6287259      0.7785181      0.6126511       0.0000000
O         0.3712741      0.2035123      0.6126512       0.0000000
O         0.1287259      0.7035122      0.3938932       0.0000000
O         0.8712741      0.2785181      0.3938931       0.0000000
O         0.8712741      0.7035122      0.3938932       0.0000000
O         0.1287259      0.2785181      0.3938931       0.0000000
O         0.3712741      0.7785181      0.6126511       0.0000000
O         0.6287258      0.2035123      0.6126512       0.0000000
O         0.8139871      0.1569017      0.3914333       0.0000000
O         0.1860128      0.8251286      0.3914336       0.0000000
O         0.3139872      0.3251286      0.6151109       0.0000000
O         0.6860129      0.6569018      0.6151108       0.0000000
O         0.6860129      0.3251286      0.6151109       0.0000000
O         0.3139871      0.6569018      0.6151108       0.0000000
O         0.1860129      0.1569017      0.3914333       0.0000000
O         0.8139871      0.8251286      0.3914336       0.0000000
O         0.8148138      0.8202568      0.6172647       0.0000000
O         0.1851862      0.1617736      0.6172647       0.0000000
O         0.3148138      0.6617736      0.3892796       0.0000000
O         0.6851863      0.3202569      0.3892796       0.0000000
O         0.6851861      0.6617736      0.3892796       0.0000000
O         0.3148138      0.3202569      0.3892796       0.0000000
O         0.1851862      0.8202568      0.6172647       0.0000000
O         0.8148138      0.1617736      0.6172647       0.0000000
O         0.6679066      0.1082707      0.4552523       0.0000000
O         0.3320934      0.8737597      0.4552524       0.0000000
O         0.1679067      0.3737597      0.5512920       0.0000000
O         0.8320935      0.6082706      0.5512920       0.0000000
O         0.8320933      0.3737597      0.5512920       0.0000000
O         0.1679065      0.6082706      0.5512920       0.0000000
O         0.3320934      0.1082707      0.4552523       0.0000000
O         0.6679066      0.8737597      0.4552524       0.0000000
O         0.6717767      0.8927817      0.5677988       0.0000000
O         0.3282233      0.0892487      0.5677987       0.0000000
O         0.1717767      0.5892487      0.4387456       0.0000000
O         0.8282235      0.3927816      0.4387456       0.0000000
O         0.8282232      0.5892487      0.4387456       0.0000000
O         0.1717765      0.3927816      0.4387456       0.0000000
O         0.3282233      0.8927817      0.5677988       0.0000000
O         0.6717767      0.0892487      0.5677987       0.0000000
O         0.6817017      0.0827004      0.3419597       0.0000000
O         0.3182978      0.8993300      0.3419597       0.0000000
O         0.1817020      0.3993300      0.6645846       0.0000000
O         0.8182979      0.5827004      0.6645846       0.0000000
O         0.8182980      0.3993300      0.6645846       0.0000000
O         0.1817021      0.5827004      0.6645846       0.0000000
O         0.3182983      0.0827004      0.3419597       0.0000000
O         0.6817022      0.8993300      0.3419597       0.0000000
O         0.6832953      0.8755406      0.6822693       0.0000000
O         0.3167047      0.1064898      0.6822692       0.0000000
O         0.1832954      0.6064898      0.3242751       0.0000000
O         0.8167048      0.3755406      0.3242750       0.0000000
O         0.8167046      0.6064898      0.3242751       0.0000000
O         0.1832952      0.3755406      0.3242750       0.0000000
O         0.3167047      0.8755406      0.6822693       0.0000000
O         0.6832954      0.1064898      0.6822692       0.0000000
O         0.1854935      0.6132142      0.8909832       0.0000000
O         0.8145065      0.3688163      0.8909832       0.0000000
O         0.6854935      0.8688164      0.1155613       0.0000000
O         0.3145064      0.1132142      0.1155610       0.0000000
O         0.3145065      0.8688164      0.1155613       0.0000000
O         0.6854935      0.1132142      0.1155610       0.0000000
O         0.8145065      0.6132142      0.8909832       0.0000000
O         0.1854935      0.3688163      0.8909832       0.0000000
O         0.1813137      0.3672604      0.1060975       0.0000000
O         0.8186864      0.6147702      0.1060975       0.0000000
O         0.6813137      0.1147700      0.9004468       0.0000000
O         0.3186864      0.8672602      0.9004468       0.0000000
O         0.3186863      0.1147700      0.9004468       0.0000000
O         0.6813136      0.8672602      0.9004468       0.0000000
O         0.8186863      0.3672604      0.1060975       0.0000000
O         0.1813136      0.6147702      0.1060975       0.0000000
O         0.1413814      0.6062738      0.7783703       0.0000000
O         0.8586184      0.3757567      0.7783703       0.0000000
O         0.6413809      0.8757564      0.2281741       0.0000000
O         0.3586178      0.1062736      0.2281739       0.0000000
O         0.3586191      0.8757564      0.2281741       0.0000000
O         0.6413822      0.1062736      0.2281739       0.0000000
O         0.8586186      0.6062738      0.7783703       0.0000000
O         0.1413815      0.3757567      0.7783703       0.0000000
O         0.1510130      0.4053078      0.2137706       0.0000000
O         0.8489875      0.5767229      0.2137706       0.0000000
O         0.6510127      0.0767228      0.7927737       0.0000000
O         0.3489874      0.9053077      0.7927737       0.0000000
O         0.3489873      0.0767228      0.7927737       0.0000000
O         0.6510126      0.9053077      0.7927737       0.0000000
O         0.8489870      0.4053078      0.2137706       0.0000000
O         0.1510125      0.5767229      0.2137706       0.0000000
O         0.3129734      0.6585516      0.8131121       0.0000000
O         0.6870266      0.3234788      0.8131122       0.0000000
O         0.8129733      0.8234789      0.1934324       0.0000000
O         0.1870264      0.1585518      0.1934319       0.0000000
O         0.1870267      0.8234789      0.1934324       0.0000000
O         0.8129736      0.1585518      0.1934319       0.0000000
O         0.6870266      0.6585516      0.8131121       0.0000000
O         0.3129734      0.3234788      0.8131122       0.0000000
O         0.3144715      0.3388796      0.1882434       0.0000000
O         0.6855286      0.6431507      0.1882436       0.0000000
O         0.8144714      0.1431507      0.8183008       0.0000000
O         0.1855286      0.8388797      0.8183008       0.0000000
O         0.1855286      0.1431507      0.8183008       0.0000000
O         0.8144714      0.8388797      0.8183008       0.0000000
O         0.6855285      0.3388796      0.1882434       0.0000000
O         0.3144714      0.6431507      0.1882436       0.0000000
O         0.1384114      0.7175011      0.8297123       0.0000000
O         0.8615885      0.2645294      0.8297123       0.0000000
O         0.6384115      0.7645292      0.1768319       0.0000000
O         0.3615887      0.2175010      0.1768321       0.0000000
O         0.3615884      0.7645292      0.1768319       0.0000000
O         0.6384113      0.2175010      0.1768321       0.0000000
O         0.8615885      0.7175011      0.8297123       0.0000000
O         0.1384114      0.2645294      0.8297123       0.0000000
O         0.1364930      0.2814539      0.1903056       0.0000000
O         0.8635068      0.7005768      0.1903056       0.0000000
O         0.6364931      0.2005767      0.8162388       0.0000000
O         0.3635069      0.7814537      0.8162386       0.0000000
O         0.3635069      0.2005767      0.8162388       0.0000000
O         0.6364931      0.7814537      0.8162386       0.0000000
O         0.8635070      0.2814539      0.1903056       0.0000000
O         0.1364932      0.7005768      0.1903056       0.0000000
O         0.3621391      0.7118862      0.2832575       0.0000000
O         0.6378609      0.2701443      0.2832575       0.0000000
O         0.8621392      0.7701443      0.7232868       0.0000000
O         0.1378609      0.2118861      0.7232868       0.0000000
O         0.1378609      0.7701443      0.7232868       0.0000000
O         0.8621391      0.2118861      0.7232868       0.0000000
O         0.6378609      0.7118862      0.2832575       0.0000000
O         0.3621391      0.2701443      0.2832575       0.0000000
O         0.3624340      0.2633862      0.7146952       0.0000000
O         0.6375660      0.7186441      0.7146950       0.0000000
O         0.8624339      0.2186441      0.2918491       0.0000000
O         0.1375659      0.7633862      0.2918493       0.0000000
O         0.1375661      0.2186441      0.2918491       0.0000000
O         0.8624341      0.7633862      0.2918493       0.0000000
O         0.6375660      0.2633862      0.7146952       0.0000000
O         0.3624340      0.7186441      0.7146950       0.0000000
O         0.1348930      0.3990395      0.9981287       0.0000000
O         0.8651069      0.5829910      0.9981287       0.0000000
O         0.6348929      0.0829909      0.0084156       0.0000000
O         0.3651068      0.8990394      0.0084157       0.0000000
O         0.3651071      0.0829909      0.0084156       0.0000000
O         0.6348932      0.8990394      0.0084157       0.0000000
O         0.8651070      0.3990395      0.9981287       0.0000000
O         0.1348931      0.5829910      0.9981287       0.0000000
O         0.5000000      0.6881446      0.3660353       0.0000000
O         0.5000000      0.2938859      0.3660352       0.0000000
O         0.0000000      0.7938859      0.6405090       0.0000000
O         0.0000000      0.1881446      0.6405090       0.0000000
O         0.5000000      0.2966653      0.6338703       0.0000000
O         0.5000000      0.6853651      0.6338702       0.0000000
O         0.0000000      0.1853651      0.3726739       0.0000000
O         0.0000000      0.7966653      0.3726742       0.0000000
O         0.5000000      0.6926306      0.7970914       0.0000000
O         0.5000000      0.2893997      0.7970914       0.0000000
O         0.0000000      0.7893998      0.2094530       0.0000000
O         0.0000000      0.1926308      0.2094528       0.0000000
O         0.5000000      0.3038145      0.2030767       0.0000000
O         0.5000000      0.6782158      0.2030767       0.0000000
O         0.0000000      0.1782159      0.8034676       0.0000000
O         0.0000000      0.8038146      0.8034676       0.0000000
O         0.8603714      0.4910152      0.5091582       0.0000000
O         0.1396286      0.4910152      0.5091582       0.0000000
O         0.3603714      0.9910152      0.4973861       0.0000000
O         0.6396286      0.9910152      0.4973861       0.0000000
O         0.1498181      0.4910153      0.0788705       0.0000000
O         0.8501819      0.4910153      0.0788705       0.0000000
O         0.6498181      0.9910151      0.9276738       0.0000000
O         0.3501819      0.9910151      0.9276738       0.0000000
O         0.1455574      0.4910153      0.9165364       0.0000000
O         0.8544426      0.4910153      0.9165364       0.0000000
O         0.6455574      0.9910153      0.0900079       0.0000000
O         0.3544426      0.9910153      0.0900079       0.0000000
O         0.1368779      0.4910152      0.7387019       0.0000000
O         0.8631220      0.4910152      0.7387019       0.0000000
O         0.6368781      0.9910151      0.2678424       0.0000000
O         0.3631218      0.9910151      0.2678424       0.0000000
O         0.1223945      0.4910152      0.2977528       0.0000000
O         0.8776055      0.4910152      0.2977528       0.0000000
O         0.6223946      0.9910152      0.7087916       0.0000000
O         0.3776054      0.9910152      0.7087916       0.0000000
O         0.0000000      0.5801778      0.4956313       0.0000000
O         0.0000000      0.4018525      0.4956315       0.0000000
O         0.5000000      0.9018526      0.5109130       0.0000000
O         0.5000000      0.0801778      0.5109129       0.0000000
O         0.0000000      0.4088758      0.0835523       0.0000000
O         0.0000000      0.5731548      0.0835523       0.0000000
O         0.5000000      0.0731546      0.9229918       0.0000000
O         0.5000000      0.9088756      0.9229922       0.0000000
O         0.0000000      0.5762700      0.9121038       0.0000000
O         0.0000000      0.4057605      0.9121037       0.0000000
O         0.5000000      0.9057605      0.0944405       0.0000000
O         0.5000000      0.0762699      0.0944405       0.0000000
O         0.0000000      0.3920166      0.2884246       0.0000000
O         0.0000000      0.5900139      0.2884250       0.0000000
O         0.5000000      0.0900138      0.7181194       0.0000000
O         0.5000000      0.8920166      0.7181195       0.0000000
O         0.0000000      0.5759600      0.7034835       0.0000000
O         0.0000000      0.4060704      0.7034836       0.0000000
O         0.5000000      0.9060707      0.3030611       0.0000000
O         0.5000000      0.0759600      0.3030600       0.0000000
space
 1
supercell 1 1 1
species
O  core  O  core
O  shel  O  shel
Si core  Si core
library catlow nodump
output cif ReferenceDataBase/8268600_111_opt
dump every 1 ReferenceDataBase/8268600_111.grs
