opti conv nosymm shellonly
name     ReferenceDataBase/8286937_111
switch_min rfo gnorm 0.08
cuts 1.1
stepmx opt 0.1
switch_stepmx 0.3 gnorm 0.005
maxcyc 500
cell
 21.95450  20.59540  18.28260  90.00000  90.00000  90.00000
fractional
Si        0.0020133      0.5701987      0.4184172       0.0000000
Si        0.0020133      0.4162613      0.4184172       0.0000000
Si        0.0020133      0.4162613      0.5806306       0.0000000
Si        0.0020133      0.5701987      0.5806306       0.0000000
Si        0.5020133      0.0701987      0.9184172       0.0000000
Si        0.5020133      0.9162613      0.9184172       0.0000000
Si        0.5020133      0.9162613      0.0806306       0.0000000
Si        0.5020133      0.0701987      0.0806306       0.0000000
Si        0.0708543      0.9932300      0.9121146       0.0000000
Si        0.9331722      0.9932300      0.9121146       0.0000000
Si        0.0708543      0.9932300      0.0869333       0.0000000
Si        0.9331722      0.9932300      0.0869333       0.0000000
Si        0.5708543      0.4932300      0.4121146       0.0000000
Si        0.4331723      0.4932300      0.4121146       0.0000000
Si        0.5708543      0.4932300      0.5869333       0.0000000
Si        0.4331723      0.4932300      0.5869333       0.0000000
Si        0.0725476      0.7426826      0.9149653       0.0000000
Si        0.9314790      0.2437773      0.9149653       0.0000000
Si        0.0725476      0.2437773      0.0840825       0.0000000
Si        0.9314790      0.7426826      0.0840825       0.0000000
Si        0.9314790      0.2437773      0.0840825       0.0000000
Si        0.0725476      0.7426826      0.0840825       0.0000000
Si        0.9314790      0.7426826      0.9149653       0.0000000
Si        0.0725476      0.2437773      0.9149653       0.0000000
Si        0.5725476      0.2426827      0.4149653       0.0000000
Si        0.4314790      0.7437773      0.4149653       0.0000000
Si        0.5725476      0.7437773      0.5840825       0.0000000
Si        0.4314790      0.2426827      0.5840825       0.0000000
Si        0.4314790      0.7437773      0.5840825       0.0000000
Si        0.5725476      0.2426827      0.5840825       0.0000000
Si        0.4314790      0.2426827      0.4149653       0.0000000
Si        0.5725476      0.7437773      0.4149653       0.0000000
Si        0.2335719      0.4178225      0.4159252       0.0000000
Si        0.7704547      0.5686375      0.4159252       0.0000000
Si        0.2335719      0.5686375      0.5831226       0.0000000
Si        0.7704547      0.4178225      0.5831226       0.0000000
Si        0.7704547      0.5686375      0.5831226       0.0000000
Si        0.2335719      0.4178225      0.5831226       0.0000000
Si        0.7704547      0.4178225      0.4159252       0.0000000
Si        0.2335719      0.5686375      0.4159252       0.0000000
Si        0.7335719      0.9178225      0.9159252       0.0000000
Si        0.2704547      0.0686375      0.9159253       0.0000000
Si        0.7335719      0.0686375      0.0831226       0.0000000
Si        0.2704547      0.9178225      0.0831226       0.0000000
Si        0.2704547      0.0686375      0.0831226       0.0000000
Si        0.7335719      0.9178225      0.0831226       0.0000000
Si        0.2704547      0.9178225      0.9159253       0.0000000
Si        0.7335719      0.0686375      0.9159252       0.0000000
Si        0.8626813      0.1171743      0.0858966       0.0000000
Si        0.1413452      0.8692857      0.0858966       0.0000000
Si        0.8626813      0.8692857      0.9131512       0.0000000
Si        0.1413452      0.1171743      0.9131512       0.0000000
Si        0.1413452      0.8692857      0.9131512       0.0000000
Si        0.8626813      0.1171743      0.9131512       0.0000000
Si        0.1413452      0.1171743      0.0858966       0.0000000
Si        0.8626813      0.8692857      0.0858966       0.0000000
Si        0.3626813      0.6171743      0.5858966       0.0000000
Si        0.6413453      0.3692857      0.5858966       0.0000000
Si        0.3626813      0.3692857      0.4131512       0.0000000
Si        0.6413453      0.6171743      0.4131512       0.0000000
Si        0.6413453      0.3692857      0.4131512       0.0000000
Si        0.3626813      0.6171743      0.4131512       0.0000000
Si        0.6413453      0.6171743      0.5858966       0.0000000
Si        0.3626813      0.3692857      0.5858966       0.0000000
Si        0.4297445      0.9932300      0.4185367       0.0000000
Si        0.5742821      0.9932300      0.4185367       0.0000000
Si        0.4297445      0.9932300      0.5805112       0.0000000
Si        0.5742821      0.9932300      0.5805112       0.0000000
Si        0.9297444      0.4932300      0.9185367       0.0000000
Si        0.0742821      0.4932300      0.9185367       0.0000000
Si        0.9297444      0.4932300      0.0805112       0.0000000
Si        0.0742821      0.4932300      0.0805112       0.0000000
Si        0.9303931      0.6145925      0.8252909       0.0000000
Si        0.0736335      0.3718675      0.8252909       0.0000000
Si        0.9303931      0.3718675      0.1737570       0.0000000
Si        0.0736335      0.6145925      0.1737570       0.0000000
Si        0.0736335      0.3718675      0.1737570       0.0000000
Si        0.9303931      0.6145925      0.1737570       0.0000000
Si        0.0736335      0.6145925      0.8252909       0.0000000
Si        0.9303931      0.3718675      0.8252909       0.0000000
Si        0.4303931      0.1145925      0.3252909       0.0000000
Si        0.5736335      0.8718675      0.3252909       0.0000000
Si        0.4303931      0.8718675      0.6737570       0.0000000
Si        0.5736334      0.1145925      0.6737570       0.0000000
Si        0.5736334      0.8718675      0.6737570       0.0000000
Si        0.4303931      0.1145925      0.6737570       0.0000000
Si        0.5736335      0.1145925      0.3252909       0.0000000
Si        0.4303931      0.8718675      0.3252909       0.0000000
Si        0.6155559      0.9166247      0.1751384       0.0000000
Si        0.3884706      0.0698354      0.1751384       0.0000000
Si        0.6155559      0.0698354      0.8239095       0.0000000
Si        0.3884706      0.9166247      0.8239095       0.0000000
Si        0.3884706      0.0698354      0.8239095       0.0000000
Si        0.6155559      0.9166247      0.8239095       0.0000000
Si        0.3884706      0.9166247      0.1751384       0.0000000
Si        0.6155559      0.0698354      0.1751384       0.0000000
Si        0.1155559      0.4166246      0.6751384       0.0000000
Si        0.8884706      0.5698354      0.6751384       0.0000000
Si        0.1155559      0.5698354      0.3239094       0.0000000
Si        0.8884706      0.4166246      0.3239094       0.0000000
Si        0.8884706      0.5698354      0.3239094       0.0000000
Si        0.1155559      0.4166246      0.3239094       0.0000000
Si        0.8884706      0.4166246      0.6751384       0.0000000
Si        0.1155559      0.5698354      0.6751384       0.0000000
O         0.0619775      0.5942813      0.3767533       0.0000000
O         0.9420490      0.3921788      0.3767533       0.0000000
O         0.0619775      0.3921788      0.6222945       0.0000000
O         0.9420490      0.5942813      0.6222945       0.0000000
O         0.9420490      0.3921788      0.6222945       0.0000000
O         0.0619775      0.5942813      0.6222945       0.0000000
O         0.9420490      0.5942813      0.3767533       0.0000000
O         0.0619775      0.3921788      0.3767533       0.0000000
O         0.5619776      0.0942812      0.8767533       0.0000000
O         0.4420490      0.8921788      0.8767533       0.0000000
O         0.5619776      0.8921788      0.1222945       0.0000000
O         0.4420490      0.0942812      0.1222945       0.0000000
O         0.4420490      0.8921788      0.1222945       0.0000000
O         0.5619776      0.0942812      0.1222945       0.0000000
O         0.4420490      0.0942812      0.8767533       0.0000000
O         0.5619776      0.8921788      0.8767533       0.0000000
O         0.0020133      0.4932300      0.4240429       0.0000000
O         0.0020133      0.4932300      0.5750049       0.0000000
O         0.5020133      0.9932300      0.9240429       0.0000000
O         0.5020133      0.9932300      0.0750050       0.0000000
O         0.0020133      0.6008201      0.4995239       0.0000000
O         0.0020133      0.3856399      0.4995239       0.0000000
O         0.5020133      0.1008201      0.9995239       0.0000000
O         0.5020133      0.8856399      0.9995239       0.0000000
O         0.1039024      0.9295470      0.8795239       0.0000000
O         0.9001241      0.0569130      0.8795239       0.0000000
O         0.1039024      0.0569130      0.1195239       0.0000000
O         0.9001241      0.9295470      0.1195239       0.0000000
O         0.9001241      0.0569130      0.1195239       0.0000000
O         0.1039024      0.9295470      0.1195239       0.0000000
O         0.9001241      0.9295470      0.8795239       0.0000000
O         0.1039024      0.0569130      0.8795239       0.0000000
O         0.6039024      0.4295470      0.3795239       0.0000000
O         0.4001242      0.5569130      0.3795239       0.0000000
O         0.6039024      0.5569130      0.6195239       0.0000000
O         0.4001242      0.4295470      0.6195239       0.0000000
O         0.4001242      0.5569130      0.6195239       0.0000000
O         0.6039024      0.4295470      0.6195239       0.0000000
O         0.4001242      0.4295470      0.3795239       0.0000000
O         0.6039024      0.5569130      0.3795239       0.0000000
O         0.0020133      0.9932300      0.8834864       0.0000000
O         0.0020133      0.9932300      0.1155614       0.0000000
O         0.5020133      0.4932300      0.3834865       0.0000000
O         0.5020133      0.4932300      0.6155614       0.0000000
O         0.0736679      0.9932300      0.9995239       0.0000000
O         0.9303586      0.9932300      0.9995239       0.0000000
O         0.5736679      0.4932300      0.4995239       0.0000000
O         0.4303586      0.4932300      0.4995239       0.0000000
O         0.1135497      0.8016900      0.8845187       0.0000000
O         0.8904768      0.1847700      0.8845187       0.0000000
O         0.1135497      0.1847700      0.1145291       0.0000000
O         0.8904768      0.8016900      0.1145291       0.0000000
O         0.8904768      0.1847700      0.1145291       0.0000000
O         0.1135497      0.8016900      0.1145291       0.0000000
O         0.8904768      0.8016900      0.8845187       0.0000000
O         0.1135497      0.1847700      0.8845187       0.0000000
O         0.6135497      0.3016900      0.3845187       0.0000000
O         0.3904769      0.6847700      0.3845187       0.0000000
O         0.6135497      0.6847700      0.6145291       0.0000000
O         0.3904769      0.3016900      0.6145291       0.0000000
O         0.3904769      0.6847700      0.6145291       0.0000000
O         0.6135497      0.3016900      0.6145291       0.0000000
O         0.3904769      0.3016900      0.3845187       0.0000000
O         0.6135497      0.6847700      0.3845187       0.0000000
O         0.0890897      0.6815121      0.8651633       0.0000000
O         0.9149368      0.3049479      0.8651633       0.0000000
O         0.0890897      0.3049479      0.1338845       0.0000000
O         0.9149368      0.6815121      0.1338845       0.0000000
O         0.9149368      0.3049479      0.1338845       0.0000000
O         0.0890897      0.6815121      0.1338845       0.0000000
O         0.9149368      0.6815121      0.8651633       0.0000000
O         0.0890897      0.3049479      0.8651633       0.0000000
O         0.5890898      0.1815121      0.3651633       0.0000000
O         0.4149368      0.8049479      0.3651633       0.0000000
O         0.5890898      0.8049479      0.6338845       0.0000000
O         0.4149368      0.1815121      0.6338845       0.0000000
O         0.4149368      0.8049479      0.6338845       0.0000000
O         0.5890898      0.1815121      0.6338845       0.0000000
O         0.4149368      0.1815121      0.3651633       0.0000000
O         0.5890898      0.8049479      0.3651633       0.0000000
O         0.0020133      0.7622942      0.9067773       0.0000000
O         0.0020133      0.2241658      0.9067773       0.0000000
O         0.0020133      0.2241658      0.0922705       0.0000000
O         0.0020133      0.7622942      0.0922705       0.0000000
O         0.5020133      0.2622942      0.4067773       0.0000000
O         0.5020133      0.7241658      0.4067773       0.0000000
O         0.5020133      0.7241658      0.5922705       0.0000000
O         0.5020133      0.2622942      0.5922705       0.0000000
O         0.0871243      0.7258254      0.9995239       0.0000000
O         0.9169023      0.2606347      0.9995239       0.0000000
O         0.0871243      0.2606347      0.9995239       0.0000000
O         0.9169023      0.7258254      0.9995239       0.0000000
O         0.5871243      0.2258254      0.4995239       0.0000000
O         0.4169023      0.7606347      0.4995239       0.0000000
O         0.5871243      0.7606347      0.4995239       0.0000000
O         0.4169023      0.2258254      0.4995239       0.0000000
O         0.2141524      0.4027465      0.4995239       0.0000000
O         0.7898742      0.5837135      0.4995239       0.0000000
O         0.2141524      0.5837135      0.4995239       0.0000000
O         0.7898742      0.4027465      0.4995239       0.0000000
O         0.7141524      0.9027465      0.9995239       0.0000000
O         0.2898742      0.0837135      0.9995239       0.0000000
O         0.7141524      0.0837135      0.9995239       0.0000000
O         0.2898742      0.9027465      0.9995239       0.0000000
O         0.2515223      0.4932300      0.4088700       0.0000000
O         0.7525042      0.4932300      0.4088700       0.0000000
O         0.2515223      0.4932300      0.5901778       0.0000000
O         0.7525042      0.4932300      0.5901778       0.0000000
O         0.7515224      0.9932300      0.9088700       0.0000000
O         0.2525042      0.9932300      0.9088700       0.0000000
O         0.7515224      0.9932300      0.0901778       0.0000000
O         0.2525042      0.9932300      0.0901778       0.0000000
O         0.2916679      0.3750844      0.3917406       0.0000000
O         0.7123587      0.6113756      0.3917406       0.0000000
O         0.2916679      0.6113756      0.6073073       0.0000000
O         0.7123587      0.3750844      0.6073073       0.0000000
O         0.7123587      0.6113756      0.6073073       0.0000000
O         0.2916679      0.3750844      0.6073073       0.0000000
O         0.7123587      0.3750844      0.3917406       0.0000000
O         0.2916679      0.6113756      0.3917406       0.0000000
O         0.7916679      0.8750844      0.8917406       0.0000000
O         0.2123587      0.1113756      0.8917406       0.0000000
O         0.7916679      0.1113756      0.1073073       0.0000000
O         0.2123587      0.8750844      0.1073073       0.0000000
O         0.2123587      0.1113756      0.1073073       0.0000000
O         0.7916679      0.8750844      0.1073073       0.0000000
O         0.2123587      0.8750844      0.8917406       0.0000000
O         0.7916679      0.1113756      0.8917406       0.0000000
O         0.1789190      0.3991718      0.3623396       0.0000000
O         0.8251076      0.5872882      0.3623396       0.0000000
O         0.1789190      0.5872882      0.6367082       0.0000000
O         0.8251076      0.3991718      0.6367082       0.0000000
O         0.8251076      0.5872882      0.6367082       0.0000000
O         0.1789190      0.3991718      0.6367082       0.0000000
O         0.8251076      0.3991718      0.3623396       0.0000000
O         0.1789190      0.5872882      0.3623396       0.0000000
O         0.6789190      0.8991718      0.8623397       0.0000000
O         0.3251076      0.0872882      0.8623397       0.0000000
O         0.6789190      0.0872882      0.1367082       0.0000000
O         0.3251076      0.8991718      0.1367082       0.0000000
O         0.3251076      0.0872882      0.1367082       0.0000000
O         0.6789190      0.8991718      0.1367082       0.0000000
O         0.3251076      0.8991718      0.8623397       0.0000000
O         0.6789190      0.0872882      0.8623397       0.0000000
O         0.8705392      0.1144784      0.9995239       0.0000000
O         0.1334873      0.8719816      0.9995239       0.0000000
O         0.8705392      0.8719816      0.9995239       0.0000000
O         0.1334873      0.1144784      0.9995239       0.0000000
O         0.3705392      0.6144783      0.4995239       0.0000000
O         0.6334873      0.3719816      0.4995239       0.0000000
O         0.3705392      0.3719816      0.4995239       0.0000000
O         0.6334873      0.6144783      0.4995239       0.0000000
O         0.4068250      0.9293522      0.3771618       0.0000000
O         0.5972016      0.0571078      0.3771618       0.0000000
O         0.4068250      0.0571078      0.6218860       0.0000000
O         0.5972016      0.9293522      0.6218860       0.0000000
O         0.5972016      0.0571078      0.6218860       0.0000000
O         0.4068250      0.9293522      0.6218860       0.0000000
O         0.5972016      0.9293522      0.3771618       0.0000000
O         0.4068250      0.0571078      0.3771618       0.0000000
O         0.9068250      0.4293522      0.8771618       0.0000000
O         0.0972016      0.5571078      0.8771619       0.0000000
O         0.9068250      0.5571078      0.1218860       0.0000000
O         0.0972016      0.4293522      0.1218860       0.0000000
O         0.0972016      0.5571078      0.1218860       0.0000000
O         0.9068250      0.4293522      0.1218860       0.0000000
O         0.0972016      0.4293522      0.8771619       0.0000000
O         0.9068250      0.5571078      0.8771618       0.0000000
O         0.5020133      0.9932300      0.4238575       0.0000000
O         0.5020133      0.9932300      0.5751904       0.0000000
O         0.0020133      0.4932300      0.9238575       0.0000000
O         0.0020133      0.4932300      0.0751904       0.0000000
O         0.4010426      0.9932300      0.4995239       0.0000000
O         0.6029840      0.9932300      0.4995239       0.0000000
O         0.9010426      0.4932300      0.9995239       0.0000000
O         0.1029839      0.4932300      0.9995239       0.0000000
O         0.8930368      0.6101244      0.7500089       0.0000000
O         0.1109898      0.3763356      0.7500089       0.0000000
O         0.8930368      0.3763356      0.2490389       0.0000000
O         0.1109898      0.6101244      0.2490389       0.0000000
O         0.1109898      0.3763356      0.2490389       0.0000000
O         0.8930368      0.6101244      0.2490389       0.0000000
O         0.1109898      0.6101244      0.7500089       0.0000000
O         0.8930368      0.3763356      0.7500089       0.0000000
O         0.3930368      0.1101244      0.2500089       0.0000000
O         0.6109898      0.8763356      0.2500089       0.0000000
O         0.3930368      0.8763356      0.7490389       0.0000000
O         0.6109898      0.1101244      0.7490389       0.0000000
O         0.6109898      0.8763356      0.7490389       0.0000000
O         0.3930368      0.1101244      0.7490389       0.0000000
O         0.6109898      0.1101244      0.2500089       0.0000000
O         0.3930368      0.8763356      0.2500089       0.0000000
O         0.0020133      0.6069999      0.8084745       0.0000000
O         0.0020133      0.3794602      0.8084745       0.0000000
O         0.0020133      0.3794602      0.1905734       0.0000000
O         0.0020133      0.6069999      0.1905734       0.0000000
O         0.5020133      0.1069999      0.3084745       0.0000000
O         0.5020133      0.8794602      0.3084745       0.0000000
O         0.5020133      0.8794602      0.6905733       0.0000000
O         0.5020133      0.1069999      0.6905733       0.0000000
O         0.6091965      0.9932300      0.1915378       0.0000000
O         0.3948300      0.9932300      0.1915378       0.0000000
O         0.6091965      0.9932300      0.8075100       0.0000000
O         0.3948300      0.9932300      0.8075100       0.0000000
O         0.1091966      0.4932300      0.6915379       0.0000000
O         0.8948300      0.4932300      0.6915379       0.0000000
O         0.1091966      0.4932300      0.3075100       0.0000000
O         0.8948300      0.4932300      0.3075100       0.0000000
space
 1
supercell 1 1 1
species
O  core  O  core
O  shel  O  shel
Si core  Si core
library catlow nodump
output cif ReferenceDataBase/8286937_111_opt
dump every 1 ReferenceDataBase/8286937_111.grs
