opti conv nosymm shellonly
name     ReferenceDataBase/8312978_111
switch_min rfo gnorm 0.08
cuts 1.1
stepmx opt 0.1
switch_stepmx 0.3 gnorm 0.005
maxcyc 500
cell
 20.19010  20.19010  19.10870  90.00000  90.00000  90.00000
fractional
Si        0.8318835      0.2776533      0.3507522       0.0000000
Si        0.8238119      0.9243882      0.9192097       0.0000000
Si        0.3717161      0.2578888      0.4251331       0.0000000
Si        0.2212626      0.6657372      0.2160183       0.0000000
Si        0.2857894      0.1713240      0.0788508       0.0000000
Si        0.8167887      0.9216515      0.4203877       0.0000000
Si        0.3157202      0.4227578      0.7136586       0.0000000
O         0.8107852      0.3377500      0.4021724       0.0000000
O         0.8361789      0.3081654      0.2722825       0.0000000
O         0.9008676      0.2451585      0.3754148       0.0000000
O         0.7526251      0.8915685      0.9034848       0.0000000
O         0.4248308      0.2840562      0.3688842       0.0000000
O         0.1891387      0.6576587      0.1387230       0.0000000
O         0.2581697      0.5982003      0.2377400       0.0000000
O         0.7765098      0.2216170      0.3543972       0.0000000
O         0.2747285      0.7233983      0.2151367       0.0000000
O         0.8831756      0.8802559      0.8861752       0.0000000
O         0.3126646      0.3097449      0.4278063       0.0000000
O         0.2317192      0.2287995      0.0753447       0.0000000
O         0.8820982      0.8791785      0.4014668       0.0000000
O         0.3817445      0.3788249      0.7207831       0.0000000
O         0.8258078      0.9976036      0.8854253       0.0000000
O         0.8319201      0.9976036      0.4012008       0.0000000
O         0.8341479      0.9282379      0.0017983       0.0000000
O         0.3197891      0.1650939      0.0017983       0.0000000
O         0.4052430      0.2506847      0.5017983       0.0000000
O         0.7988074      0.9131014      0.5017983       0.0000000
O         0.3340179      0.4976036      0.7341658       0.0000000
Si        0.7204736      0.8289638      0.3507522       0.0000000
Si        0.0737387      0.8208923      0.9192097       0.0000000
Si        0.7402381      0.3687964      0.4251331       0.0000000
Si        0.3323897      0.2183430      0.2160183       0.0000000
Si        0.8268028      0.2828697      0.0788508       0.0000000
Si        0.0764753      0.8138690      0.4203877       0.0000000
Si        0.5753691      0.3128006      0.7136586       0.0000000
O         0.6603768      0.8078656      0.4021724       0.0000000
O         0.6899614      0.8332592      0.2722825       0.0000000
O         0.7529684      0.8979480      0.3754148       0.0000000
O         0.1065584      0.7497055      0.9034848       0.0000000
O         0.7140707      0.4219111      0.3688842       0.0000000
O         0.3404681      0.1862191      0.1387230       0.0000000
O         0.3999265      0.2552500      0.2377400       0.0000000
O         0.7765098      0.7735901      0.3543973       0.0000000
O         0.2747285      0.2718088      0.2151367       0.0000000
O         0.1178710      0.8802559      0.8861752       0.0000000
O         0.6883819      0.3097450      0.4278063       0.0000000
O         0.7693273      0.2287996      0.0753447       0.0000000
O         0.1189483      0.8791785      0.4014668       0.0000000
O         0.6193020      0.3788249      0.7207831       0.0000000
O         0.0005233      0.8228881      0.8854253       0.0000000
O         0.0005233      0.8290005      0.4012008       0.0000000
O         0.0698890      0.8312283      0.0017983       0.0000000
O         0.8330330      0.3168695      0.0017983       0.0000000
O         0.7474421      0.4023233      0.5017983       0.0000000
O         0.0850255      0.7958877      0.5017983       0.0000000
O         0.5005233      0.3310982      0.7341658       0.0000000
Si        0.1691630      0.7175539      0.3507522       0.0000000
Si        0.1772346      0.0708190      0.9192097       0.0000000
Si        0.6293305      0.7373184      0.4251331       0.0000000
Si        0.7797839      0.3294700      0.2160183       0.0000000
Si        0.7152572      0.8238832      0.0788508       0.0000000
Si        0.1842579      0.0735556      0.4203877       0.0000000
Si        0.6853263      0.5724494      0.7136586       0.0000000
O         0.1902613      0.6574572      0.4021724       0.0000000
O         0.1648676      0.6870418      0.2722825       0.0000000
O         0.1001789      0.7500487      0.3754148       0.0000000
O         0.2484214      0.1036387      0.9034848       0.0000000
O         0.5762157      0.7111511      0.3688842       0.0000000
O         0.8119078      0.3375485      0.1387230       0.0000000
O         0.7428769      0.3970069      0.2377400       0.0000000
O         0.2245367      0.7735901      0.3543973       0.0000000
O         0.7263180      0.2718088      0.2151367       0.0000000
O         0.1178710      0.1149513      0.8861752       0.0000000
O         0.6883819      0.6854622      0.4278063       0.0000000
O         0.7693273      0.7664077      0.0753447       0.0000000
O         0.1189483      0.1160287      0.4014668       0.0000000
O         0.6193020      0.6163823      0.7207831       0.0000000
O         0.1752388      0.9976036      0.8854253       0.0000000
O         0.1691264      0.9976036      0.4012008       0.0000000
O         0.1668986      0.0669693      0.0017983       0.0000000
O         0.6812574      0.8301133      0.0017983       0.0000000
O         0.5958035      0.7445225      0.5017983       0.0000000
O         0.2022392      0.0821058      0.5017983       0.0000000
O         0.6670287      0.4976036      0.7341658       0.0000000
Si        0.2805730      0.1662434      0.3507522       0.0000000
Si        0.9273078      0.1743149      0.9192097       0.0000000
Si        0.2608084      0.6264108      0.4251331       0.0000000
Si        0.6686568      0.7768642      0.2160183       0.0000000
Si        0.1742437      0.7123375      0.0788508       0.0000000
Si        0.9245712      0.1813382      0.4203877       0.0000000
Si        0.4256775      0.6824066      0.7136586       0.0000000
O         0.3406697      0.1873416      0.4021724       0.0000000
O         0.3110851      0.1619480      0.2722825       0.0000000
O         0.2480782      0.0972593      0.3754148       0.0000000
O         0.8944882      0.2455017      0.9034848       0.0000000
O         0.2869758      0.5732961      0.3688842       0.0000000
O         0.6605784      0.8089882      0.1387230       0.0000000
O         0.6011200      0.7399572      0.2377400       0.0000000
O         0.2245367      0.2216170      0.3543973       0.0000000
O         0.7263180      0.7233983      0.2151367       0.0000000
O         0.8831756      0.1149513      0.8861752       0.0000000
O         0.3126646      0.6854622      0.4278063       0.0000000
O         0.2317192      0.7664077      0.0753447       0.0000000
O         0.8820982      0.1160287      0.4014668       0.0000000
O         0.3817445      0.6163823      0.7207831       0.0000000
O         0.0005233      0.1723191      0.8854253       0.0000000
O         0.0005233      0.1662067      0.4012008       0.0000000
O         0.9311575      0.1639789      0.0017983       0.0000000
O         0.1680135      0.6783378      0.0017983       0.0000000
O         0.2536044      0.5928839      0.5017983       0.0000000
O         0.9160210      0.1993195      0.5017983       0.0000000
O         0.5005233      0.6641090      0.7341658       0.0000000
Si        0.8318835      0.7175539      0.6528444       0.0000000
Si        0.8238119      0.0708190      0.0843870       0.0000000
Si        0.3717161      0.7373184      0.5784636       0.0000000
Si        0.2212626      0.3294700      0.7875783       0.0000000
Si        0.2857894      0.8238832      0.9247458       0.0000000
Si        0.8167887      0.0735556      0.5832090       0.0000000
Si        0.3157202      0.5724494      0.2899381       0.0000000
O         0.8107852      0.6574572      0.6014243       0.0000000
O         0.8361789      0.6870418      0.7313142       0.0000000
O         0.9008676      0.7500487      0.6281819       0.0000000
O         0.7526251      0.1036387      0.1001118       0.0000000
O         0.4248308      0.7111511      0.6347124       0.0000000
O         0.1891387      0.3375485      0.8648737       0.0000000
O         0.2581697      0.3970069      0.7658566       0.0000000
O         0.7765098      0.7735901      0.6491994       0.0000000
O         0.2747285      0.2718088      0.7884599       0.0000000
O         0.8831756      0.1149513      0.1174214       0.0000000
O         0.3126646      0.6854622      0.5757903       0.0000000
O         0.2317192      0.7664077      0.9282519       0.0000000
O         0.8820982      0.1160287      0.6021299       0.0000000
O         0.3817445      0.6163823      0.2828136       0.0000000
O         0.8258078      0.9976036      0.1181713       0.0000000
O         0.8319201      0.9976036      0.6023958       0.0000000
O         0.8341479      0.0669693      0.0017983       0.0000000
O         0.3197891      0.8301133      0.0017983       0.0000000
O         0.4052430      0.7445225      0.5017983       0.0000000
O         0.7988074      0.0821058      0.5017983       0.0000000
O         0.3340179      0.4976036      0.2694308       0.0000000
Si        0.2805730      0.8289638      0.6528444       0.0000000
Si        0.9273078      0.8208923      0.0843870       0.0000000
Si        0.2608084      0.3687964      0.5784636       0.0000000
Si        0.6686568      0.2183430      0.7875783       0.0000000
Si        0.1742437      0.2828697      0.9247458       0.0000000
Si        0.9245712      0.8138690      0.5832090       0.0000000
Si        0.4256775      0.3128006      0.2899381       0.0000000
O         0.3406697      0.8078656      0.6014243       0.0000000
O         0.3110851      0.8332592      0.7313142       0.0000000
O         0.2480782      0.8979480      0.6281819       0.0000000
O         0.8944882      0.7497055      0.1001118       0.0000000
O         0.2869758      0.4219111      0.6347124       0.0000000
O         0.6605784      0.1862191      0.8648737       0.0000000
O         0.6011200      0.2552500      0.7658566       0.0000000
O         0.2245367      0.7735901      0.6491994       0.0000000
O         0.7263180      0.2718089      0.7884599       0.0000000
O         0.8831756      0.8802559      0.1174214       0.0000000
O         0.3126646      0.3097449      0.5757903       0.0000000
O         0.2317192      0.2287995      0.9282519       0.0000000
O         0.8820982      0.8791785      0.6021299       0.0000000
O         0.3817445      0.3788249      0.2828136       0.0000000
O         0.0005233      0.8228881      0.1181713       0.0000000
O         0.0005233      0.8290005      0.6023958       0.0000000
O         0.9311575      0.8312283      0.0017983       0.0000000
O         0.1680135      0.3168695      0.0017983       0.0000000
O         0.2536044      0.4023233      0.5017983       0.0000000
O         0.9160210      0.7958877      0.5017983       0.0000000
O         0.5005233      0.3310982      0.2694308       0.0000000
Si        0.1691630      0.2776533      0.6528444       0.0000000
Si        0.1772346      0.9243882      0.0843870       0.0000000
Si        0.6293305      0.2578888      0.5784636       0.0000000
Si        0.7797839      0.6657372      0.7875783       0.0000000
Si        0.7152572      0.1713240      0.9247458       0.0000000
Si        0.1842579      0.9216515      0.5832090       0.0000000
Si        0.6853263      0.4227578      0.2899381       0.0000000
O         0.1902613      0.3377500      0.6014243       0.0000000
O         0.1648676      0.3081654      0.7313142       0.0000000
O         0.1001789      0.2451585      0.6281819       0.0000000
O         0.2484214      0.8915685      0.1001118       0.0000000
O         0.5762158      0.2840562      0.6347124       0.0000000
O         0.8119078      0.6576588      0.8648737       0.0000000
O         0.7428769      0.5982003      0.7658566       0.0000000
O         0.2245367      0.2216170      0.6491994       0.0000000
O         0.7263180      0.7233983      0.7884599       0.0000000
O         0.1178710      0.8802559      0.1174214       0.0000000
O         0.6883819      0.3097449      0.5757903       0.0000000
O         0.7693273      0.2287995      0.9282519       0.0000000
O         0.1189483      0.8791785      0.6021299       0.0000000
O         0.6193020      0.3788249      0.2828136       0.0000000
O         0.1752388      0.9976036      0.1181713       0.0000000
O         0.1691264      0.9976036      0.6023958       0.0000000
O         0.1668986      0.9282379      0.0017983       0.0000000
O         0.6812574      0.1650939      0.0017983       0.0000000
O         0.5958036      0.2506847      0.5017983       0.0000000
O         0.2022392      0.9131014      0.5017983       0.0000000
O         0.6670287      0.4976036      0.2694308       0.0000000
Si        0.7204736      0.1662434      0.6528444       0.0000000
Si        0.0737387      0.1743149      0.0843870       0.0000000
Si        0.7402381      0.6264108      0.5784636       0.0000000
Si        0.3323897      0.7768642      0.7875783       0.0000000
Si        0.8268028      0.7123375      0.9247458       0.0000000
Si        0.0764753      0.1813382      0.5832090       0.0000000
Si        0.5753691      0.6824067      0.2899381       0.0000000
O         0.6603768      0.1873416      0.6014243       0.0000000
O         0.6899614      0.1619480      0.7313142       0.0000000
O         0.7529684      0.0972593      0.6281819       0.0000000
O         0.1065584      0.2455017      0.1001118       0.0000000
O         0.7140707      0.5732961      0.6347124       0.0000000
O         0.3404681      0.8089882      0.8648737       0.0000000
O         0.3999265      0.7399572      0.7658566       0.0000000
O         0.7765098      0.2216170      0.6491994       0.0000000
O         0.2747285      0.7233983      0.7884599       0.0000000
O         0.1178710      0.1149513      0.1174214       0.0000000
O         0.6883819      0.6854622      0.5757903       0.0000000
O         0.7693273      0.7664077      0.9282519       0.0000000
O         0.1189483      0.1160287      0.6021299       0.0000000
O         0.6193020      0.6163823      0.2828136       0.0000000
O         0.0005233      0.1723191      0.1181713       0.0000000
O         0.0005233      0.1662067      0.6023958       0.0000000
O         0.0698890      0.1639789      0.0017983       0.0000000
O         0.8330330      0.6783378      0.0017983       0.0000000
O         0.7474421      0.5928839      0.5017983       0.0000000
O         0.0850255      0.1993195      0.5017983       0.0000000
O         0.5005233      0.6641090      0.2694308       0.0000000
Si        0.1691630      0.7175539      0.6528444       0.0000000
Si        0.1772346      0.0708190      0.0843870       0.0000000
Si        0.6293305      0.7373184      0.5784636       0.0000000
Si        0.7797839      0.3294700      0.7875783       0.0000000
Si        0.7152572      0.8238832      0.9247458       0.0000000
Si        0.1842579      0.0735556      0.5832090       0.0000000
Si        0.6853263      0.5724494      0.2899381       0.0000000
O         0.1902613      0.6574572      0.6014243       0.0000000
O         0.1648676      0.6870418      0.7313142       0.0000000
O         0.1001789      0.7500487      0.6281819       0.0000000
O         0.2484214      0.1036387      0.1001118       0.0000000
O         0.5762157      0.7111511      0.6347124       0.0000000
O         0.8119078      0.3375485      0.8648737       0.0000000
O         0.7428769      0.3970069      0.7658566       0.0000000
Si        0.2805730      0.1662434      0.6528444       0.0000000
Si        0.9273078      0.1743149      0.0843870       0.0000000
Si        0.2608084      0.6264108      0.5784636       0.0000000
Si        0.6686568      0.7768642      0.7875783       0.0000000
Si        0.1742437      0.7123375      0.9247458       0.0000000
Si        0.9245712      0.1813382      0.5832090       0.0000000
Si        0.4256775      0.6824066      0.2899381       0.0000000
O         0.3406697      0.1873416      0.6014243       0.0000000
O         0.3110851      0.1619480      0.7313142       0.0000000
O         0.2480782      0.0972593      0.6281819       0.0000000
O         0.8944882      0.2455017      0.1001118       0.0000000
O         0.2869758      0.5732961      0.6347124       0.0000000
O         0.6605784      0.8089882      0.8648737       0.0000000
O         0.6011200      0.7399572      0.7658566       0.0000000
Si        0.8318835      0.2776533      0.6528444       0.0000000
Si        0.8238119      0.9243882      0.0843870       0.0000000
Si        0.3717161      0.2578888      0.5784636       0.0000000
Si        0.2212626      0.6657372      0.7875783       0.0000000
Si        0.2857894      0.1713240      0.9247458       0.0000000
Si        0.8167887      0.9216515      0.5832090       0.0000000
Si        0.3157202      0.4227578      0.2899381       0.0000000
O         0.8107852      0.3377500      0.6014243       0.0000000
O         0.8361789      0.3081654      0.7313142       0.0000000
O         0.9008676      0.2451585      0.6281819       0.0000000
O         0.7526251      0.8915685      0.1001118       0.0000000
O         0.4248308      0.2840562      0.6347124       0.0000000
O         0.1891387      0.6576587      0.8648737       0.0000000
O         0.2581697      0.5982003      0.7658566       0.0000000
Si        0.7204736      0.8289638      0.6528444       0.0000000
Si        0.0737387      0.8208923      0.0843870       0.0000000
Si        0.7402381      0.3687964      0.5784636       0.0000000
Si        0.3323897      0.2183430      0.7875783       0.0000000
Si        0.8268028      0.2828697      0.9247458       0.0000000
Si        0.0764753      0.8138690      0.5832090       0.0000000
Si        0.5753691      0.3128006      0.2899381       0.0000000
O         0.6603768      0.8078656      0.6014243       0.0000000
O         0.6899614      0.8332592      0.7313142       0.0000000
O         0.7529684      0.8979480      0.6281819       0.0000000
O         0.1065584      0.7497055      0.1001118       0.0000000
O         0.7140707      0.4219111      0.6347124       0.0000000
O         0.3404681      0.1862191      0.8648737       0.0000000
O         0.3999265      0.2552500      0.7658566       0.0000000
Si        0.1691630      0.2776533      0.3507522       0.0000000
Si        0.1772346      0.9243882      0.9192097       0.0000000
Si        0.6293305      0.2578888      0.4251331       0.0000000
Si        0.7797839      0.6657372      0.2160183       0.0000000
Si        0.7152572      0.1713240      0.0788508       0.0000000
Si        0.1842579      0.9216515      0.4203877       0.0000000
Si        0.6853263      0.4227578      0.7136586       0.0000000
O         0.1902613      0.3377500      0.4021724       0.0000000
O         0.1648676      0.3081654      0.2722825       0.0000000
O         0.1001789      0.2451585      0.3754148       0.0000000
O         0.2484214      0.8915685      0.9034848       0.0000000
O         0.5762157      0.2840562      0.3688842       0.0000000
O         0.8119078      0.6576588      0.1387230       0.0000000
O         0.7428769      0.5982003      0.2377400       0.0000000
Si        0.7204736      0.1662434      0.3507522       0.0000000
Si        0.0737387      0.1743149      0.9192097       0.0000000
Si        0.7402381      0.6264108      0.4251331       0.0000000
Si        0.3323897      0.7768642      0.2160183       0.0000000
Si        0.8268028      0.7123375      0.0788508       0.0000000
Si        0.0764753      0.1813382      0.4203877       0.0000000
Si        0.5753691      0.6824066      0.7136586       0.0000000
O         0.6603768      0.1873416      0.4021724       0.0000000
O         0.6899614      0.1619480      0.2722825       0.0000000
O         0.7529684      0.0972593      0.3754148       0.0000000
O         0.1065584      0.2455017      0.9034848       0.0000000
O         0.7140707      0.5732961      0.3688842       0.0000000
O         0.3404681      0.8089882      0.1387230       0.0000000
O         0.3999265      0.7399572      0.2377400       0.0000000
Si        0.8318835      0.7175539      0.3507522       0.0000000
Si        0.8238119      0.0708190      0.9192097       0.0000000
Si        0.3717161      0.7373184      0.4251331       0.0000000
Si        0.2212626      0.3294700      0.2160183       0.0000000
Si        0.2857894      0.8238832      0.0788508       0.0000000
Si        0.8167887      0.0735556      0.4203877       0.0000000
Si        0.3157202      0.5724494      0.7136586       0.0000000
O         0.8107852      0.6574572      0.4021724       0.0000000
O         0.8361789      0.6870418      0.2722825       0.0000000
O         0.9008676      0.7500487      0.3754148       0.0000000
O         0.7526251      0.1036387      0.9034848       0.0000000
O         0.4248308      0.7111511      0.3688842       0.0000000
O         0.1891387      0.3375485      0.1387230       0.0000000
O         0.2581697      0.3970069      0.2377400       0.0000000
Si        0.2805730      0.8289638      0.3507522       0.0000000
Si        0.9273078      0.8208923      0.9192097       0.0000000
Si        0.2608084      0.3687964      0.4251331       0.0000000
Si        0.6686568      0.2183430      0.2160183       0.0000000
Si        0.1742437      0.2828697      0.0788508       0.0000000
Si        0.9245712      0.8138690      0.4203877       0.0000000
Si        0.4256775      0.3128006      0.7136586       0.0000000
O         0.3406697      0.8078656      0.4021724       0.0000000
O         0.3110851      0.8332592      0.2722825       0.0000000
O         0.2480782      0.8979480      0.3754148       0.0000000
O         0.8944882      0.7497055      0.9034848       0.0000000
O         0.2869758      0.4219111      0.3688842       0.0000000
O         0.6605784      0.1862191      0.1387230       0.0000000
O         0.6011200      0.2552500      0.2377400       0.0000000
space
 1
supercell 1 1 1
species
O  core  O  core
O  shel  O  shel
Si core  Si core
library catlow nodump
output cif ReferenceDataBase/8312978_111_opt
dump every 1 ReferenceDataBase/8312978_111.grs
