opti conv nosymm shellonly
name     ReferenceDataBase/8317769_111
switch_min rfo gnorm 0.08
cuts 1.1
stepmx opt 0.1
switch_stepmx 0.3 gnorm 0.005
maxcyc 500
cell
 16.12390  16.12390  20.67730  90.00000  90.00000  90.00000
fractional
Si        0.4696194      0.2649419      0.8517806       0.0000000
Si        0.7815985      0.9111499      0.8368384       0.0000000
Si        0.1432848      0.2759802      0.6988534       0.0000000
Si        0.2757326      0.4079744      0.2953750       0.0000000
Si        0.8103312      0.6724871      0.9269446       0.0000000
O         0.5624963      0.2284170      0.8480176       0.0000000
O         0.4695140      0.3498969      0.8915333       0.0000000
O         0.4331620      0.2817051      0.7812309       0.0000000
O         0.4146356      0.1964888      0.8884143       0.0000000
O         0.7320650      0.8818533      0.7737703       0.0000000
O         0.7308717      0.8817524      0.8992749       0.0000000
O         0.7876483      0.0100757      0.8398193       0.0000000
O         0.1872446      0.3652854      0.6906300       0.0000000
Si        0.9324341      0.0686562      0.5749096       0.0000000
O         0.8737370      0.8712724      0.8369238       0.0000000
O         0.2049888      0.2025242      0.6783200       0.0000000
O         0.3483844      0.3459198      0.3146898       0.0000000
O         0.7224598      0.7199951      0.9188366       0.0000000
O         0.9092798      0.0918106      0.5008432       0.0000000
O         0.0017775      0.9993129      0.5773830       0.0000000
O         0.8314783      0.6538152      0.0008432       0.0000000
Si        0.2361485      0.9671547      0.3517806       0.0000000
Si        0.5899405      0.2791338      0.3368384       0.0000000
Si        0.2251102      0.6408201      0.1988534       0.0000000
Si        0.0931160      0.7732679      0.7953750       0.0000000
Si        0.8286033      0.3078665      0.4269446       0.0000000
O         0.2726733      0.0600316      0.3480175       0.0000000
O         0.1511935      0.9670493      0.3915333       0.0000000
O         0.2193853      0.9306974      0.2812309       0.0000000
O         0.3046016      0.9121709      0.3884143       0.0000000
O         0.6192370      0.2296003      0.2737704       0.0000000
O         0.6193379      0.2284070      0.3992750       0.0000000
O         0.4910146      0.2851837      0.3398193       0.0000000
O         0.1358050      0.6847800      0.1906300       0.0000000
Si        0.4324341      0.4299695      0.0749096       0.0000000
O         0.6298180      0.3712724      0.3369238       0.0000000
O         0.2985662      0.7025241      0.1783200       0.0000000
O         0.1551706      0.8459198      0.8146899       0.0000000
O         0.7810952      0.2199952      0.4188366       0.0000000
O         0.4092798      0.4068151      0.0008432       0.0000000
O         0.5017775      0.4993128      0.0773830       0.0000000
O         0.8472752      0.3290136      0.5008432       0.0000000
Si        0.5339356      0.7336838      0.8517806       0.0000000
Si        0.2219565      0.0874759      0.8368384       0.0000000
Si        0.8602702      0.7226455      0.6988534       0.0000000
Si        0.7278224      0.5906513      0.2953750       0.0000000
Si        0.1932238      0.3261386      0.9269446       0.0000000
O         0.4410587      0.7702087      0.8480176       0.0000000
O         0.5340410      0.6487288      0.8915333       0.0000000
O         0.5703930      0.7169207      0.7812309       0.0000000
O         0.5889194      0.8021369      0.8884143       0.0000000
O         0.2714900      0.1167723      0.7737703       0.0000000
O         0.2726833      0.1168733      0.8992749       0.0000000
O         0.2159067      0.9885499      0.8398193       0.0000000
O         0.8163103      0.6333404      0.6906300       0.0000000
Si        0.0711209      0.9299695      0.5749096       0.0000000
O         0.1298180      0.1273533      0.8369238       0.0000000
O         0.7985662      0.7961016      0.6783200       0.0000000
O         0.6551706      0.6527059      0.3146898       0.0000000
O         0.2810952      0.2786305      0.9188366       0.0000000
O         0.0942752      0.9068151      0.5008432       0.0000000
O         0.1720767      0.3448105      0.0008432       0.0000000
Si        0.7674065      0.0314710      0.3517806       0.0000000
Si        0.4136145      0.7194918      0.3368384       0.0000000
Si        0.7784448      0.3578056      0.1988534       0.0000000
Si        0.9104390      0.2253578      0.7953750       0.0000000
Si        0.1749518      0.6907592      0.4269446       0.0000000
O         0.7308817      0.9385940      0.3480175       0.0000000
O         0.8523616      0.0315764      0.3915333       0.0000000
O         0.7841697      0.0679283      0.2812309       0.0000000
O         0.6989534      0.0864547      0.3884143       0.0000000
O         0.3843180      0.7690254      0.2737704       0.0000000
O         0.3842171      0.7702186      0.3992750       0.0000000
O         0.5125404      0.7134420      0.3398193       0.0000000
O         0.8677500      0.3138457      0.1906300       0.0000000
Si        0.5711209      0.5686562      0.0749096       0.0000000
O         0.3737370      0.6273533      0.3369238       0.0000000
O         0.7049888      0.2961015      0.1783200       0.0000000
O         0.8483844      0.1527060      0.8146899       0.0000000
O         0.2224598      0.7786306      0.4188366       0.0000000
O         0.5942752      0.5918106      0.0008432       0.0000000
O         0.1562798      0.6696121      0.5008432       0.0000000
Si        0.9696194      0.2336838      0.6499058       0.0000000
Si        0.2815985      0.5874759      0.6648480       0.0000000
Si        0.6432848      0.2226456      0.8028330       0.0000000
Si        0.7757326      0.0906513      0.2063114       0.0000000
Si        0.3103312      0.8261386      0.5747418       0.0000000
O         0.0624963      0.2702087      0.6536689       0.0000000
O         0.9695140      0.1487288      0.6101531       0.0000000
O         0.9331620      0.2169206      0.7204555       0.0000000
O         0.9146356      0.3021369      0.6132721       0.0000000
O         0.2320650      0.6167724      0.7279161       0.0000000
O         0.2308717      0.6168733      0.6024114       0.0000000
O         0.2876483      0.4885500      0.6618671       0.0000000
O         0.6872447      0.1333403      0.8110564       0.0000000
Si        0.4324341      0.4299695      0.9267768       0.0000000
O         0.3737370      0.6273533      0.6647626       0.0000000
O         0.7049888      0.2961015      0.8233664       0.0000000
O         0.8483844      0.1527059      0.1869965       0.0000000
O         0.2224598      0.7786306      0.5828498       0.0000000
O         0.5017775      0.4993128      0.9243034       0.0000000
O         0.3314783      0.8448105      0.5008432       0.0000000
Si        0.2674065      0.4671547      0.1499058       0.0000000
Si        0.9136145      0.7791339      0.1648480       0.0000000
Si        0.2784448      0.1408201      0.3028330       0.0000000
Si        0.4104390      0.2732680      0.7063114       0.0000000
Si        0.6749518      0.8078665      0.0747418       0.0000000
O         0.2308817      0.5600317      0.1536689       0.0000000
O         0.3523615      0.4670493      0.1101531       0.0000000
O         0.2841697      0.4306974      0.2204555       0.0000000
O         0.1989534      0.4121710      0.1132721       0.0000000
O         0.8843180      0.7296003      0.2279160       0.0000000
O         0.8842171      0.7284070      0.1024114       0.0000000
O         0.0125404      0.7851837      0.1618671       0.0000000
O         0.3677500      0.1847800      0.3110564       0.0000000
Si        0.0711209      0.9299695      0.4267768       0.0000000
O         0.8737370      0.8712724      0.1647626       0.0000000
O         0.2049888      0.2025241      0.3233664       0.0000000
O         0.3483844      0.3459198      0.6869966       0.0000000
O         0.7224598      0.7199951      0.0828498       0.0000000
O         0.0017775      0.9993128      0.4243034       0.0000000
O         0.6562798      0.8290136      0.0008432       0.0000000
Si        0.0339356      0.7649419      0.6499058       0.0000000
Si        0.7219565      0.4111499      0.6648480       0.0000000
Si        0.3602702      0.7759802      0.8028330       0.0000000
Si        0.2278224      0.9079744      0.2063114       0.0000000
Si        0.6932238      0.1724871      0.5747418       0.0000000
O         0.9410587      0.7284170      0.6536689       0.0000000
O         0.0340410      0.8498969      0.6101531       0.0000000
O         0.0703930      0.7817050      0.7204555       0.0000000
O         0.0889194      0.6964888      0.6132721       0.0000000
O         0.7714900      0.3818534      0.7279161       0.0000000
O         0.7726833      0.3817525      0.6024114       0.0000000
O         0.7159067      0.5100757      0.6618671       0.0000000
O         0.3163104      0.8652853      0.8110564       0.0000000
Si        0.5711209      0.5686562      0.9267768       0.0000000
O         0.6298180      0.3712724      0.6647626       0.0000000
O         0.2985662      0.7025241      0.8233664       0.0000000
O         0.1551706      0.8459197      0.1869965       0.0000000
O         0.7810952      0.2199952      0.5828498       0.0000000
O         0.6720767      0.1538152      0.5008432       0.0000000
Si        0.7361485      0.5314710      0.1499058       0.0000000
Si        0.0899405      0.2194919      0.1648480       0.0000000
Si        0.7251102      0.8578056      0.3028330       0.0000000
Si        0.5931160      0.7253578      0.7063114       0.0000000
Si        0.3286032      0.1907592      0.0747418       0.0000000
O         0.7726733      0.4385940      0.1536689       0.0000000
O         0.6511935      0.5315764      0.1101531       0.0000000
O         0.7193853      0.5679283      0.2204555       0.0000000
O         0.8046016      0.5864547      0.1132721       0.0000000
O         0.1192370      0.2690254      0.2279160       0.0000000
O         0.1193379      0.2702186      0.1024114       0.0000000
O         0.9910146      0.2134420      0.1618671       0.0000000
O         0.6358050      0.8138457      0.3110564       0.0000000
Si        0.9324341      0.0686562      0.4267768       0.0000000
O         0.1298180      0.1273533      0.1647626       0.0000000
O         0.7985662      0.7961016      0.3233664       0.0000000
O         0.6551706      0.6527060      0.6869966       0.0000000
O         0.2810952      0.2786305      0.0828498       0.0000000
O         0.3472752      0.1696121      0.0008432       0.0000000
Si        0.5339356      0.7336838      0.1499058       0.0000000
Si        0.2219565      0.0874759      0.1648480       0.0000000
Si        0.8602702      0.7226455      0.3028330       0.0000000
Si        0.7278224      0.5906513      0.7063114       0.0000000
Si        0.1932238      0.3261386      0.0747418       0.0000000
O         0.4410587      0.7702087      0.1536689       0.0000000
O         0.5340410      0.6487288      0.1101531       0.0000000
O         0.5703930      0.7169206      0.2204555       0.0000000
O         0.5889194      0.8021369      0.1132721       0.0000000
O         0.2714900      0.1167723      0.2279160       0.0000000
O         0.2726833      0.1168732      0.1024114       0.0000000
O         0.2159067      0.9885499      0.1618671       0.0000000
O         0.8163103      0.6333404      0.3110564       0.0000000
Si        0.7674065      0.0314710      0.6499058       0.0000000
Si        0.4136145      0.7194918      0.6648480       0.0000000
Si        0.7784448      0.3578056      0.8028330       0.0000000
Si        0.9104390      0.2253578      0.2063114       0.0000000
Si        0.1749518      0.6907592      0.5747418       0.0000000
O         0.7308817      0.9385940      0.6536689       0.0000000
O         0.8523615      0.0315764      0.6101531       0.0000000
O         0.7841697      0.0679283      0.7204555       0.0000000
O         0.6989534      0.0864547      0.6132721       0.0000000
O         0.3843180      0.7690254      0.7279161       0.0000000
O         0.3842171      0.7702187      0.6024114       0.0000000
O         0.5125404      0.7134420      0.6618671       0.0000000
O         0.8677500      0.3138457      0.8110564       0.0000000
Si        0.4696194      0.2649419      0.1499058       0.0000000
Si        0.7815985      0.9111499      0.1648480       0.0000000
Si        0.1432848      0.2759801      0.3028330       0.0000000
Si        0.2757326      0.4079744      0.7063114       0.0000000
Si        0.8103312      0.6724871      0.0747418       0.0000000
O         0.5624963      0.2284170      0.1536689       0.0000000
O         0.4695140      0.3498969      0.1101531       0.0000000
O         0.4331620      0.2817051      0.2204555       0.0000000
O         0.4146356      0.1964888      0.1132721       0.0000000
O         0.7320650      0.8818533      0.2279160       0.0000000
O         0.7308717      0.8817524      0.1024114       0.0000000
O         0.7876483      0.0100757      0.1618671       0.0000000
O         0.1872446      0.3652854      0.3110564       0.0000000
Si        0.2361485      0.9671547      0.6499058       0.0000000
Si        0.5899405      0.2791339      0.6648480       0.0000000
Si        0.2251102      0.6408201      0.8028330       0.0000000
Si        0.0931160      0.7732679      0.2063114       0.0000000
Si        0.8286032      0.3078665      0.5747418       0.0000000
O         0.2726733      0.0600317      0.6536688       0.0000000
O         0.1511935      0.9670493      0.6101531       0.0000000
O         0.2193853      0.9306974      0.7204555       0.0000000
O         0.3046016      0.9121710      0.6132721       0.0000000
O         0.6192370      0.2296003      0.7279161       0.0000000
O         0.6193379      0.2284071      0.6024114       0.0000000
O         0.4910146      0.2851837      0.6618671       0.0000000
O         0.1358050      0.6847800      0.8110564       0.0000000
Si        0.0339356      0.7649419      0.3517806       0.0000000
Si        0.7219565      0.4111498      0.3368384       0.0000000
Si        0.3602702      0.7759802      0.1988534       0.0000000
Si        0.2278224      0.9079744      0.7953750       0.0000000
Si        0.6932238      0.1724871      0.4269446       0.0000000
O         0.9410587      0.7284170      0.3480175       0.0000000
O         0.0340410      0.8498968      0.3915333       0.0000000
O         0.0703930      0.7817050      0.2812309       0.0000000
O         0.0889194      0.6964888      0.3884143       0.0000000
O         0.7714900      0.3818533      0.2737704       0.0000000
O         0.7726833      0.3817524      0.3992750       0.0000000
O         0.7159067      0.5100757      0.3398193       0.0000000
O         0.3163104      0.8652853      0.1906300       0.0000000
Si        0.7361485      0.5314710      0.8517806       0.0000000
Si        0.0899405      0.2194919      0.8368384       0.0000000
Si        0.7251102      0.8578056      0.6988534       0.0000000
Si        0.5931160      0.7253578      0.2953750       0.0000000
Si        0.3286032      0.1907592      0.9269446       0.0000000
O         0.7726733      0.4385940      0.8480176       0.0000000
O         0.6511935      0.5315764      0.8915333       0.0000000
O         0.7193853      0.5679283      0.7812309       0.0000000
O         0.8046016      0.5864547      0.8884143       0.0000000
O         0.1192370      0.2690254      0.7737703       0.0000000
O         0.1193379      0.2702186      0.8992749       0.0000000
O         0.9910146      0.2134420      0.8398193       0.0000000
O         0.6358050      0.8138457      0.6906300       0.0000000
Si        0.9696194      0.2336838      0.3517806       0.0000000
Si        0.2815985      0.5874758      0.3368384       0.0000000
Si        0.6432848      0.2226455      0.1988534       0.0000000
Si        0.7757326      0.0906513      0.7953750       0.0000000
Si        0.3103312      0.8261386      0.4269446       0.0000000
O         0.0624963      0.2702087      0.3480175       0.0000000
O         0.9695140      0.1487288      0.3915333       0.0000000
O         0.9331620      0.2169206      0.2812309       0.0000000
O         0.9146357      0.3021369      0.3884143       0.0000000
O         0.2320650      0.6167724      0.2737704       0.0000000
O         0.2308717      0.6168733      0.3992750       0.0000000
O         0.2876484      0.4885499      0.3398193       0.0000000
O         0.6872447      0.1333403      0.1906300       0.0000000
Si        0.2674065      0.4671547      0.8517806       0.0000000
Si        0.9136145      0.7791339      0.8368384       0.0000000
Si        0.2784448      0.1408201      0.6988534       0.0000000
Si        0.4104390      0.2732679      0.2953750       0.0000000
Si        0.6749518      0.8078665      0.9269446       0.0000000
O         0.2308817      0.5600317      0.8480176       0.0000000
O         0.3523615      0.4670493      0.8915333       0.0000000
O         0.2841697      0.4306974      0.7812309       0.0000000
O         0.1989534      0.4121710      0.8884143       0.0000000
O         0.8843180      0.7296003      0.7737703       0.0000000
O         0.8842171      0.7284070      0.8992749       0.0000000
O         0.0125404      0.7851837      0.8398193       0.0000000
O         0.3677500      0.1847800      0.6906300       0.0000000
space
 1
supercell 1 1 1
species
O  core  O  core
O  shel  O  shel
Si core  Si core
library catlow nodump
output cif ReferenceDataBase/8317769_111_opt
dump every 1 ReferenceDataBase/8317769_111.grs
