opti conv nosymm shellonly
name     ReferenceDataBase/8323211_111
switch_min rfo gnorm 0.08
cuts 1.1
stepmx opt 0.1
switch_stepmx 0.3 gnorm 0.005
maxcyc 500
cell
 18.14460  18.14460  20.15040  90.00000  90.00000 120.00000
fractional
Si        0.0696750      0.6257896      0.1790306       0.0000000
Si        0.5268911      0.7703273      0.3767836       0.0000000
Si        0.6202092      0.0752555      0.8309729       0.0000000
Si        0.9409706      0.5626945      0.4443398       0.0000000
Si        0.2404874      0.4839525      0.9754074       0.0000000
Si        0.4480914      0.0698152      0.4443398       0.0000000
O         0.1447992      0.7202035      0.1611919       0.0000000
O         0.0998052      0.5567844      0.1639606       0.0000000
O         0.0421293      0.6221035      0.2550018       0.0000000
O         0.9876332      0.6028871      0.1347528       0.0000000
O         0.5724266      0.8659866      0.3488117       0.0000000
O         0.5303206      0.7720422      0.4555265       0.0000000
O         0.4312966      0.7225301      0.3485285       0.0000000
O         0.5741994      0.2939815      0.4485438       0.0000000
O         0.5973066      0.9932137      0.8752508       0.0000000
O         0.8605022      0.5772100      0.4476600       0.0000000
O         0.9113513      0.4625574      0.4499199       0.0000000
O         0.0026027      0.6128342      0.5050018       0.0000000
O         0.1447031      0.4391563      0.9476600       0.0000000
Si        0.6692694      0.3415165      0.4761591       0.0000000
Si        0.6692694      0.3415165      0.8761694       0.0000000
O         0.6692694      0.3415165      0.5550659       0.0000000
Si        0.3849962      0.4576490      0.1790306       0.0000000
Si        0.2404585      0.7703273      0.3767836       0.0000000
Si        0.9355304      0.5587173      0.8309729       0.0000000
Si        0.4480914      0.3920397      0.4443398       0.0000000
Si        0.5268334      0.7702985      0.9754074       0.0000000
Si        0.9409706      0.3920397      0.4443398       0.0000000
O         0.2905823      0.4383593      0.1611919       0.0000000
O         0.4540015      0.5567844      0.1639606       0.0000000
O         0.3886823      0.4337894      0.2550018       0.0000000
O         0.4078988      0.3985098      0.1347528       0.0000000
O         0.1447992      0.7202035      0.3488117       0.0000000
O         0.2387437      0.7720422      0.4555265       0.0000000
O         0.2882558      0.7225301      0.3485285       0.0000000
O         0.7168043      0.2939815      0.4485438       0.0000000
O         0.0175721      0.6178565      0.8752508       0.0000000
O         0.4335758      0.2970558      0.4476600       0.0000000
O         0.5482284      0.4625574      0.4499199       0.0000000
O         0.3979517      0.4035321      0.5050018       0.0000000
O         0.5716295      0.7193105      0.9476600       0.0000000
Si        0.5531368      0.9411108      0.1790306       0.0000000
Si        0.2404585      0.4838947      0.3767836       0.0000000
Si        0.4520685      0.3905766      0.8309729       0.0000000
Si        0.6187461      0.0698152      0.4443398       0.0000000
Si        0.2404874      0.7702985      0.9754074       0.0000000
Si        0.6187461      0.5626944      0.4443398       0.0000000
O         0.5724266      0.8659866      0.1611919       0.0000000
O         0.4540015      0.9109806      0.1639606       0.0000000
O         0.5769964      0.9686565      0.2550018       0.0000000
O         0.6122761      0.0231526      0.1347528       0.0000000
O         0.2905823      0.4383593      0.3488117       0.0000000
O         0.2387437      0.4804652      0.4555265       0.0000000
O         0.2882558      0.5794893      0.3485285       0.0000000
O         0.7168043      0.4365864      0.4485438       0.0000000
O         0.3929293      0.4134792      0.8752508       0.0000000
O         0.7137300      0.1502836      0.4476600       0.0000000
O         0.5482284      0.0994346      0.4499199       0.0000000
O         0.6072537      0.0081831      0.5050018       0.0000000
O         0.2914754      0.8660827      0.9476600       0.0000000
Si        0.3849962      0.9411108      0.3309729       0.0000000
Si        0.2404585      0.4838947      0.1332199       0.0000000
Si        0.9355304      0.3905766      0.6790306       0.0000000
Si        0.4480914      0.0698152      0.0656638       0.0000000
Si        0.5268334      0.7702985      0.5345962       0.0000000
Si        0.9409706      0.5626945      0.0656638       0.0000000
O         0.2905823      0.8659866      0.3488117       0.0000000
O         0.4540015      0.9109806      0.3460429       0.0000000
O         0.3886823      0.9686565      0.2550018       0.0000000
O         0.4078988      0.0231526      0.3752508       0.0000000
O         0.1447992      0.4383593      0.1611919       0.0000000
O         0.2387437      0.4804652      0.0544771       0.0000000
O         0.2882558      0.5794893      0.1614750       0.0000000
O         0.7168043      0.4365864      0.0614597       0.0000000
O         0.0175721      0.4134792      0.6347528       0.0000000
O         0.4335758      0.1502836      0.0623436       0.0000000
O         0.5482284      0.0994346      0.0600836       0.0000000
O         0.3979517      0.0081831      0.0050018       0.0000000
O         0.5716295      0.8660827      0.5623435       0.0000000
Si        0.6692694      0.3415165      0.0338445       0.0000000
Si        0.6692694      0.3415165      0.6338342       0.0000000
O         0.6692694      0.3415165      0.9549376       0.0000000
Si        0.0696750      0.4576490      0.3309729       0.0000000
Si        0.5268911      0.7703274      0.1332199       0.0000000
Si        0.6202092      0.5587173      0.6790306       0.0000000
Si        0.9409706      0.3920397      0.0656638       0.0000000
Si        0.2404874      0.7702985      0.5345962       0.0000000
Si        0.4480914      0.3920397      0.0656638       0.0000000
O         0.1447992      0.4383593      0.3488117       0.0000000
O         0.0998052      0.5567844      0.3460429       0.0000000
O         0.0421293      0.4337894      0.2550018       0.0000000
O         0.9876332      0.3985098      0.3752508       0.0000000
O         0.5724266      0.7202035      0.1611919       0.0000000
O         0.5303206      0.7720422      0.0544771       0.0000000
O         0.4312966      0.7225301      0.1614750       0.0000000
O         0.5741994      0.2939815      0.0614597       0.0000000
O         0.5973066      0.6178565      0.6347528       0.0000000
O         0.8605022      0.2970558      0.0623436       0.0000000
O         0.9113513      0.4625574      0.0600836       0.0000000
O         0.0026027      0.4035321      0.0050018       0.0000000
O         0.1447031      0.7193105      0.5623435       0.0000000
Si        0.5531368      0.6257896      0.3309729       0.0000000
Si        0.2404585      0.7703274      0.1332199       0.0000000
Si        0.4520685      0.0752555      0.6790306       0.0000000
Si        0.6187461      0.5626945      0.0656638       0.0000000
Si        0.2404874      0.4839525      0.5345962       0.0000000
Si        0.6187461      0.0698152      0.0656638       0.0000000
O         0.5724266      0.7202035      0.3488117       0.0000000
O         0.4540015      0.5567844      0.3460429       0.0000000
O         0.5769964      0.6221035      0.2550018       0.0000000
O         0.6122761      0.6028871      0.3752508       0.0000000
O         0.2905823      0.8659866      0.1611919       0.0000000
O         0.2387437      0.7720422      0.0544771       0.0000000
O         0.2882558      0.7225301      0.1614750       0.0000000
O         0.7168043      0.2939815      0.0614597       0.0000000
O         0.3929293      0.9932137      0.6347528       0.0000000
O         0.7137300      0.5772100      0.0623436       0.0000000
O         0.5482284      0.4625574      0.0600836       0.0000000
O         0.6072537      0.6128342      0.0050018       0.0000000
O         0.2914754      0.4391563      0.5623435       0.0000000
Si        0.9355304      0.3905766      0.8309729       0.0000000
Si        0.4783143      0.2460389      0.6332200       0.0000000
Si        0.3849962      0.9411108      0.1790306       0.0000000
Si        0.0642348      0.4536718      0.5656638       0.0000000
Si        0.7647180      0.5324138      0.0345962       0.0000000
Si        0.5571140      0.9465510      0.5656638       0.0000000
O         0.8604062      0.2961628      0.8488117       0.0000000
O         0.9054002      0.4595819      0.8460429       0.0000000
O         0.9630761      0.3942628      0.7550018       0.0000000
O         0.0175721      0.4134792      0.8752508       0.0000000
O         0.4327788      0.1503797      0.6611918       0.0000000
O         0.4748847      0.2443242      0.5544770       0.0000000
O         0.5739088      0.2938362      0.6614751       0.0000000
O         0.4310060      0.7223848      0.5614597       0.0000000
O         0.4078988      0.0231526      0.1347528       0.0000000
O         0.1447031      0.4391563      0.5623435       0.0000000
O         0.0938541      0.5538089      0.5600836       0.0000000
O         0.0026027      0.4035321      0.5050018       0.0000000
O         0.8605022      0.5772100      0.0623436       0.0000000
Si        0.3359360      0.6748498      0.5338445       0.0000000
Si        0.3359360      0.6748498      0.1338342       0.0000000
O         0.3359360      0.6748498      0.4549376       0.0000000
Si        0.6202092      0.5587173      0.8309729       0.0000000
Si        0.7647469      0.2460389      0.6332200       0.0000000
Si        0.0696750      0.4576490      0.1790306       0.0000000
Si        0.5571140      0.6243266      0.5656638       0.0000000
Si        0.4783720      0.2460678      0.0345962       0.0000000
Si        0.0642348      0.6243266      0.5656638       0.0000000
O         0.7146230      0.5780070      0.8488117       0.0000000
O         0.5512039      0.4595819      0.8460429       0.0000000
O         0.6165230      0.5825769      0.7550018       0.0000000
O         0.5973066      0.6178565      0.8752508       0.0000000
O         0.8604062      0.2961628      0.6611918       0.0000000
O         0.7664617      0.2443242      0.5544770       0.0000000
O         0.7169496      0.2938362      0.6614751       0.0000000
O         0.2884010      0.7223848      0.5614597       0.0000000
O         0.9876332      0.3985098      0.1347528       0.0000000
O         0.5716295      0.7193105      0.5623435       0.0000000
O         0.4569770      0.5538089      0.5600836       0.0000000
O         0.6072537      0.6128342      0.5050018       0.0000000
O         0.4335758      0.2970558      0.0623436       0.0000000
Si        0.4520685      0.0752555      0.8309729       0.0000000
Si        0.7647469      0.5324716      0.6332200       0.0000000
Si        0.5531368      0.6257896      0.1790306       0.0000000
Si        0.3864593      0.9465510      0.5656638       0.0000000
Si        0.7647180      0.2460678      0.0345962       0.0000000
Si        0.3864593      0.4536718      0.5656638       0.0000000
O         0.4327788      0.1503797      0.8488117       0.0000000
O         0.5512039      0.1053856      0.8460429       0.0000000
O         0.4282090      0.0477098      0.7550018       0.0000000
O         0.3929293      0.9932137      0.8752508       0.0000000
O         0.7146230      0.5780070      0.6611918       0.0000000
O         0.7664617      0.5359011      0.5544770       0.0000000
O         0.7169496      0.4368770      0.6614751       0.0000000
O         0.2884010      0.5797799      0.5614597       0.0000000
O         0.6122761      0.6028871      0.1347528       0.0000000
O         0.2914754      0.8660827      0.5623435       0.0000000
O         0.4569770      0.9169317      0.5600836       0.0000000
O         0.3979517      0.0081831      0.5050018       0.0000000
O         0.7137300      0.1502836      0.0623436       0.0000000
Si        0.6202092      0.0752555      0.6790306       0.0000000
Si        0.7647469      0.5324716      0.8767836       0.0000000
Si        0.0696750      0.6257896      0.3309729       0.0000000
Si        0.5571140      0.9465510      0.9443398       0.0000000
Si        0.4783720      0.2460678      0.4754074       0.0000000
Si        0.0642348      0.4536718      0.9443398       0.0000000
O         0.7146230      0.1503797      0.6611918       0.0000000
O         0.5512039      0.1053856      0.6639606       0.0000000
O         0.6165230      0.0477098      0.7550018       0.0000000
O         0.5973066      0.9932137      0.6347528       0.0000000
O         0.8604062      0.5780070      0.8488117       0.0000000
O         0.7664617      0.5359011      0.9555265       0.0000000
O         0.7169496      0.4368770      0.8485285       0.0000000
O         0.2884010      0.5797799      0.9485438       0.0000000
O         0.9876332      0.6028871      0.3752508       0.0000000
O         0.5716295      0.8660827      0.9476600       0.0000000
O         0.4569770      0.9169317      0.9499199       0.0000000
O         0.6072537      0.0081831      0.0050018       0.0000000
O         0.4335758      0.1502836      0.4476600       0.0000000
Si        0.3359360      0.6748498      0.9761591       0.0000000
Si        0.3359360      0.6748498      0.3761694       0.0000000
O         0.3359360      0.6748498      0.0550659       0.0000000
Si        0.9355304      0.5587173      0.6790306       0.0000000
Si        0.4783143      0.2460389      0.8767836       0.0000000
Si        0.3849962      0.4576490      0.3309729       0.0000000
Si        0.0642348      0.6243266      0.9443398       0.0000000
Si        0.7647180      0.2460678      0.4754074       0.0000000
Si        0.5571140      0.6243266      0.9443398       0.0000000
O         0.8604062      0.5780070      0.6611918       0.0000000
O         0.9054002      0.4595819      0.6639606       0.0000000
O         0.9630761      0.5825769      0.7550018       0.0000000
O         0.0175721      0.6178565      0.6347528       0.0000000
O         0.4327788      0.2961628      0.8488117       0.0000000
O         0.4748847      0.2443242      0.9555265       0.0000000
O         0.5739088      0.2938362      0.8485285       0.0000000
O         0.4310060      0.7223848      0.9485438       0.0000000
O         0.4078988      0.3985098      0.3752508       0.0000000
O         0.1447031      0.7193105      0.9476600       0.0000000
O         0.0938541      0.5538089      0.9499199       0.0000000
O         0.0026027      0.6128342      0.0050018       0.0000000
O         0.8605022      0.2970558      0.4476600       0.0000000
Si        0.4520685      0.3905766      0.6790306       0.0000000
Si        0.7647469      0.2460389      0.8767836       0.0000000
Si        0.5531368      0.9411108      0.3309729       0.0000000
Si        0.3864593      0.4536718      0.9443398       0.0000000
Si        0.7647180      0.5324138      0.4754074       0.0000000
Si        0.3864593      0.9465510      0.9443398       0.0000000
O         0.4327788      0.2961628      0.6611918       0.0000000
O         0.5512039      0.4595819      0.6639606       0.0000000
O         0.4282090      0.3942628      0.7550018       0.0000000
O         0.3929293      0.4134792      0.6347528       0.0000000
O         0.7146230      0.1503797      0.8488117       0.0000000
O         0.7664617      0.2443242      0.9555265       0.0000000
O         0.7169496      0.2938362      0.8485285       0.0000000
O         0.2884010      0.7223848      0.9485438       0.0000000
O         0.6122761      0.0231526      0.3752508       0.0000000
O         0.2914754      0.4391563      0.9476600       0.0000000
O         0.4569770      0.5538089      0.9499199       0.0000000
O         0.3979517      0.4035321      0.0050018       0.0000000
O         0.7137300      0.5772100      0.4476600       0.0000000
space
 1
supercell 1 1 1
species
O  core  O  core
O  shel  O  shel
Si core  Si core
library catlow nodump
output cif ReferenceDataBase/8323211_111_opt
dump every 1 ReferenceDataBase/8323211_111.grs
