opti conv nosymm shellonly
name     ReferenceDataBase/8323183_111
switch_min rfo gnorm 0.08
cuts 1.1
stepmx opt 0.1
switch_stepmx 0.3 gnorm 0.005
maxcyc 500
cell
 16.32970  16.32970  18.71870  90.00000  90.00000 120.00000
fractional
Si        0.4736646      0.3320648      0.7523409       0.0000000
Si        0.6691292      0.1411473      0.7523409       0.0000000
Si        0.8600467      0.5275294      0.7523409       0.0000000
Si        0.6691292      0.5275294      0.7523409       0.0000000
Si        0.8600467      0.3320648      0.7523409       0.0000000
Si        0.4736646      0.1411473      0.7523409       0.0000000
Si        0.5282291      0.6684296      0.2523409       0.0000000
Si        0.3327644      0.8593470      0.2523409       0.0000000
Si        0.1418470      0.4729649      0.2523409       0.0000000
Si        0.3327644      0.4729649      0.2523409       0.0000000
Si        0.1418470      0.6684296      0.2523409       0.0000000
Si        0.5282291      0.8593470      0.2523409       0.0000000
Si        0.6697903      0.1441234      0.4635206       0.0000000
Si        0.8570706      0.5252144      0.4635206       0.0000000
Si        0.4759796      0.3314037      0.4635206       0.0000000
Si        0.8570706      0.3314037      0.0411611       0.0000000
Si        0.4759796      0.1441234      0.0411611       0.0000000
Si        0.6697903      0.5252144      0.0411611       0.0000000
Si        0.3321034      0.8563710      0.5411611       0.0000000
Si        0.1448230      0.4752799      0.5411611       0.0000000
Si        0.5259141      0.6690906      0.5411611       0.0000000
Si        0.1448230      0.6690906      0.9635206       0.0000000
Si        0.5259141      0.8563710      0.9635206       0.0000000
Si        0.3321034      0.4752799      0.9635206       0.0000000
Si        0.6218971      0.5729368      0.8964451       0.0000000
Si        0.4282571      0.0485078      0.8964451       0.0000000
Si        0.9526863      0.3792969      0.8964451       0.0000000
Si        0.4282571      0.3792969      0.6082366       0.0000000
Si        0.9526863      0.5729368      0.6082366       0.0000000
Si        0.6218971      0.0485078      0.6082366       0.0000000
Si        0.3799965      0.4275575      0.1082366       0.0000000
Si        0.5736365      0.9519866      0.1082366       0.0000000
Si        0.0492074      0.6211975      0.1082366       0.0000000
Si        0.5736365      0.6211975      0.3964451       0.0000000
Si        0.0492074      0.4275575      0.3964451       0.0000000
Si        0.3799966      0.9519866      0.3964451       0.0000000
Si        0.5736365      0.9519866      0.3964451       0.0000000
Si        0.0492074      0.6211975      0.3964451       0.0000000
Si        0.3799966      0.4275575      0.3964451       0.0000000
Si        0.0492074      0.4275575      0.1082366       0.0000000
Si        0.3799966      0.9519866      0.1082366       0.0000000
Si        0.5736365      0.6211975      0.1082366       0.0000000
Si        0.4282571      0.0485078      0.6082366       0.0000000
Si        0.9526863      0.3792969      0.6082366       0.0000000
Si        0.6218971      0.5729368      0.6082366       0.0000000
Si        0.9526863      0.5729368      0.8964451       0.0000000
Si        0.6218971      0.0485078      0.8964451       0.0000000
Si        0.4282571      0.3792969      0.8964451       0.0000000
Si        0.8570706      0.5252144      0.0411611       0.0000000
Si        0.4759796      0.3314037      0.0411611       0.0000000
Si        0.6697903      0.1441234      0.0411611       0.0000000
Si        0.4759796      0.1441234      0.4635206       0.0000000
Si        0.6697903      0.5252144      0.4635206       0.0000000
Si        0.8570706      0.3314037      0.4635206       0.0000000
Si        0.1448230      0.4752799      0.9635206       0.0000000
Si        0.5259141      0.6690906      0.9635206       0.0000000
Si        0.3321034      0.8563710      0.9635206       0.0000000
Si        0.5259141      0.8563710      0.5411611       0.0000000
Si        0.3321034      0.4752799      0.5411611       0.0000000
Si        0.1448230      0.6690906      0.5411611       0.0000000
O         0.5732188      0.4279752      0.7523409       0.0000000
O         0.5732188      0.1447912      0.7523409       0.0000000
O         0.8564028      0.4279752      0.7523409       0.0000000
O         0.4286748      0.5725192      0.2523409       0.0000000
O         0.4286748      0.8557032      0.2523409       0.0000000
O         0.1454908      0.5725192      0.2523409       0.0000000
O         0.4958805      0.2477140      0.7523409       0.0000000
O         0.7534800      0.2477140      0.7523409       0.0000000
O         0.7534800      0.5053135      0.7523409       0.0000000
O         0.5060132      0.7527803      0.2523409       0.0000000
O         0.2484137      0.7527803      0.2523409       0.0000000
O         0.2484137      0.4951808      0.2523409       0.0000000
O         0.4113093      0.3245163      0.6829751       0.0000000
O         0.6766777      0.0863405      0.6829751       0.0000000
O         0.9148535      0.5898847      0.6829751       0.0000000
O         0.6766777      0.5898847      0.8217067       0.0000000
O         0.9148535      0.3245163      0.8217067       0.0000000
O         0.4113093      0.0863405      0.8217067       0.0000000
O         0.5905843      0.6759780      0.3217067       0.0000000
O         0.3252160      0.9141538      0.3217067       0.0000000
O         0.0870402      0.4106096      0.3217067       0.0000000
O         0.3252160      0.4106096      0.1829751       0.0000000
O         0.0870402      0.6759780      0.1829751       0.0000000
O         0.5905843      0.9141538      0.1829751       0.0000000
O         0.4113093      0.3245163      0.8217067       0.0000000
O         0.6766777      0.0863405      0.8217067       0.0000000
O         0.9148535      0.5898847      0.8217067       0.0000000
O         0.6766777      0.5898847      0.6829751       0.0000000
O         0.9148535      0.3245163      0.6829751       0.0000000
O         0.4113093      0.0863405      0.6829751       0.0000000
O         0.5905843      0.6759780      0.1829751       0.0000000
O         0.3252160      0.9141538      0.1829751       0.0000000
O         0.0870402      0.4106096      0.1829751       0.0000000
O         0.3252160      0.4106096      0.3217067       0.0000000
O         0.0870402      0.6759780      0.3217067       0.0000000
O         0.5905843      0.9141538      0.3217067       0.0000000
O         0.6836340      0.1169175      0.5438417       0.0000000
O         0.8842765      0.5662640      0.5438417       0.0000000
O         0.4349300      0.3175600      0.5438417       0.0000000
O         0.8842764      0.3175600      0.9608400       0.0000000
O         0.4349300      0.1169175      0.9608400       0.0000000
O         0.6836340      0.5662640      0.9608400       0.0000000
O         0.3182597      0.8835768      0.4608400       0.0000000
O         0.1176172      0.4342304      0.4608400       0.0000000
O         0.5669636      0.6829343      0.4608400       0.0000000
O         0.1176172      0.6829343      0.0438417       0.0000000
O         0.5669636      0.8835768      0.0438417       0.0000000
O         0.3182597      0.4342303      0.0438417       0.0000000
O         0.5817247      0.1618029      0.4594227       0.0000000
O         0.8393911      0.4194693      0.4594227       0.0000000
O         0.5817247      0.4194693      0.4594227       0.0000000
O         0.8393911      0.4194693      0.0452590       0.0000000
O         0.5817247      0.1618029      0.0452590       0.0000000
O         0.5817247      0.4194693      0.0452589       0.0000000
O         0.4201689      0.8386914      0.5452589       0.0000000
O         0.1625026      0.5810251      0.5452589       0.0000000
O         0.4201689      0.5810251      0.5452589       0.0000000
O         0.1625026      0.5810251      0.9594228       0.0000000
O         0.4201689      0.8386914      0.9594228       0.0000000
O         0.4201689      0.5810251      0.9594228       0.0000000
O         0.7629364      0.2382576      0.4387870       0.0000000
O         0.7629364      0.5242264      0.4387870       0.0000000
O         0.4769676      0.2382576      0.4387870       0.0000000
O         0.7629364      0.2382576      0.0658947       0.0000000
O         0.4769677      0.2382576      0.0658947       0.0000000
O         0.7629364      0.5242264      0.0658947       0.0000000
O         0.2389572      0.7622368      0.5658947       0.0000000
O         0.2389572      0.4762680      0.5658947       0.0000000
O         0.5249260      0.7622368      0.5658947       0.0000000
O         0.2389572      0.7622368      0.9387870       0.0000000
O         0.5249260      0.7622368      0.9387870       0.0000000
O         0.2389572      0.4762680      0.9387870       0.0000000
O         0.6558447      0.0597791      0.4105751       0.0000000
O         0.9414148      0.5956131      0.4105751       0.0000000
O         0.4055809      0.3453493      0.4105751       0.0000000
O         0.9414148      0.3453493      0.0941066       0.0000000
O         0.4055809      0.0597791      0.0941066       0.0000000
O         0.6558447      0.5956131      0.0941066       0.0000000
O         0.3460489      0.9407152      0.5941066       0.0000000
O         0.0604788      0.4048812      0.5941066       0.0000000
O         0.5963128      0.6551451      0.5941066       0.0000000
O         0.0604788      0.6551451      0.9105752       0.0000000
O         0.5963128      0.9407152      0.9105752       0.0000000
O         0.3460489      0.4048812      0.9105751       0.0000000
O         0.5254535      0.4757405      0.8937945       0.0000000
O         0.5254535      0.0492605      0.8937945       0.0000000
O         0.9519335      0.4757405      0.8937945       0.0000000
O         0.5254535      0.4757405      0.6108872       0.0000000
O         0.9519335      0.4757405      0.6108872       0.0000000
O         0.5254535      0.0492605      0.6108872       0.0000000
O         0.4764402      0.5247538      0.1108872       0.0000000
O         0.4764402      0.9512339      0.1108872       0.0000000
O         0.0499601      0.5247538      0.1108872       0.0000000
O         0.4764402      0.5247538      0.3937945       0.0000000
O         0.0499601      0.5247538      0.3937945       0.0000000
O         0.4764402      0.9512339      0.3937945       0.0000000
O         0.5963128      0.6551451      0.9105751       0.0000000
O         0.3460489      0.9407152      0.9105752       0.0000000
O         0.0604788      0.4048812      0.9105752       0.0000000
O         0.3460489      0.4048812      0.5941066       0.0000000
O         0.0604788      0.6551451      0.5941066       0.0000000
O         0.5963128      0.9407152      0.5941066       0.0000000
O         0.4055809      0.3453493      0.0941066       0.0000000
O         0.6558447      0.0597791      0.0941066       0.0000000
O         0.9414148      0.5956131      0.0941066       0.0000000
O         0.6558447      0.5956131      0.4105751       0.0000000
O         0.9414148      0.3453493      0.4105751       0.0000000
O         0.4055809      0.0597791      0.4105751       0.0000000
O         0.5669636      0.8835768      0.4608400       0.0000000
O         0.1176172      0.6829343      0.4608400       0.0000000
O         0.3182597      0.4342304      0.4608400       0.0000000
O         0.1176172      0.4342304      0.0438417       0.0000000
O         0.3182597      0.8835768      0.0438417       0.0000000
O         0.5669637      0.6829343      0.0438417       0.0000000
O         0.4349300      0.1169175      0.5438417       0.0000000
O         0.8842765      0.3175600      0.5438417       0.0000000
O         0.6836340      0.5662640      0.5438417       0.0000000
O         0.8842764      0.5662640      0.9608400       0.0000000
O         0.6836340      0.1169175      0.9608400       0.0000000
O         0.4349300      0.3175600      0.9608400       0.0000000
space
 1
supercell 1 1 1
species
O  core  O  core
O  shel  O  shel
Si core  Si core
library catlow nodump
output cif ReferenceDataBase/8323183_111_opt
dump every 1 ReferenceDataBase/8323183_111.grs
