opti conv nosymm shellonly
name     ReferenceDataBase/8325000_111
switch_min rfo gnorm 0.08
cuts 1.1
stepmx opt 0.1
switch_stepmx 0.3 gnorm 0.005
maxcyc 500
cell
 18.91570  18.91570  11.09510  90.00000  90.00000 120.00000
fractional
Si        0.0889006      0.7545598      0.6426316       0.0000000
Si        0.6704507      0.1871490      0.7428425       0.0000000
Si        0.9076148      0.6609729      0.3567260       0.0000000
Si        0.1792469      0.6613979      0.3591138       0.0000000
O         0.1537350      0.8470132      0.6842091       0.0000000
O         0.1188415      0.6929349      0.6887349       0.0000000
O         0.9981315      0.7268248      0.6905649       0.0000000
O         0.6897039      0.1167958      0.7058144       0.0000000
O         0.7258747      0.2704766      0.6694689       0.0000000
O         0.5767434      0.1562888      0.7113858       0.0000000
O         0.6848523      0.2028475      0.8849996       0.0000000
Si        0.6769690      0.2490928      0.0002248       0.0000000
O         0.7503520      0.3440039      0.0002248       0.0000000
O         0.0871467      0.7516047      0.5002248       0.0000000
O         0.9045691      0.6480878      0.5002248       0.0000000
O         0.1696688      0.6431987      0.5002248       0.0000000
Si        0.3349484      0.0906183      0.6426316       0.0000000
Si        0.4839092      0.6721683      0.7428425       0.0000000
Si        0.2472494      0.9093324      0.3567260       0.0000000
Si        0.5184566      0.1809645      0.3591138       0.0000000
O         0.3073294      0.1554527      0.6842091       0.0000000
O         0.4265142      0.1205592      0.6887349       0.0000000
O         0.2719142      0.9998491      0.6905649       0.0000000
O         0.5735157      0.6914216      0.7058144       0.0000000
O         0.4560057      0.7275924      0.6694689       0.0000000
O         0.4210621      0.5784610      0.7113858       0.0000000
O         0.4826124      0.6865699      0.8849996       0.0000000
Si        0.4284837      0.6786866      0.0002248       0.0000000
O         0.4069557      0.7520697      0.0002248       0.0000000
O         0.3361497      0.0888644      0.5002248       0.0000000
O         0.2570889      0.9062867      0.5002248       0.0000000
O         0.5270778      0.1713865      0.5002248       0.0000000
Si        0.2449377      0.3366660      0.6426316       0.0000000
Si        0.8123485      0.4856269      0.7428425       0.0000000
Si        0.3385246      0.2489671      0.3567260       0.0000000
Si        0.3380997      0.5201743      0.3591138       0.0000000
O         0.1524844      0.3090471      0.6842091       0.0000000
O         0.3065627      0.4282319      0.6887349       0.0000000
O         0.2726727      0.2736318      0.6905649       0.0000000
O         0.8827018      0.5752333      0.7058144       0.0000000
O         0.7290210      0.4577234      0.6694689       0.0000000
O         0.8432087      0.4227798      0.7113858       0.0000000
O         0.7966500      0.4843300      0.8849996       0.0000000
Si        0.7504047      0.4302014      0.0002248       0.0000000
O         0.6554936      0.4086733      0.0002248       0.0000000
O         0.2478929      0.3378673      0.5002248       0.0000000
O         0.3514098      0.2588065      0.5002248       0.0000000
O         0.3562989      0.5287954      0.5002248       0.0000000
Si        0.9088793      0.2466554      0.6426316       0.0000000
Si        0.3273292      0.8140662      0.7428425       0.0000000
Si        0.0901651      0.3402423      0.3567260       0.0000000
Si        0.8185330      0.3398173      0.3591138       0.0000000
O         0.8440449      0.1542020      0.6842091       0.0000000
O         0.8789384      0.3082803      0.6887349       0.0000000
O         0.9996485      0.2743903      0.6905649       0.0000000
O         0.3080760      0.8844194      0.7058144       0.0000000
O         0.2719052      0.7307386      0.6694689       0.0000000
O         0.4210365      0.8449264      0.7113858       0.0000000
O         0.3129276      0.7983676      0.8849996       0.0000000
Si        0.3208109      0.7521223      0.0002248       0.0000000
O         0.2474279      0.6572112      0.0002248       0.0000000
O         0.9106331      0.2496105      0.5002248       0.0000000
O         0.0932108      0.3531274      0.5002248       0.0000000
O         0.8281111      0.3580165      0.5002248       0.0000000
Si        0.6628315      0.9105969      0.6426316       0.0000000
Si        0.5138707      0.3290469      0.7428425       0.0000000
Si        0.7505305      0.0918828      0.3567260       0.0000000
Si        0.4793233      0.8202506      0.3591138       0.0000000
O         0.6904504      0.8457625      0.6842091       0.0000000
O         0.5712657      0.8806560      0.6887349       0.0000000
O         0.7258657      0.0013661      0.6905649       0.0000000
O         0.4242642      0.3097936      0.7058144       0.0000000
O         0.5417742      0.2736228      0.6694689       0.0000000
O         0.5767177      0.4227542      0.7113858       0.0000000
O         0.5151675      0.3146452      0.8849996       0.0000000
Si        0.5692962      0.3225286      0.0002248       0.0000000
O         0.5908242      0.2491455      0.0002248       0.0000000
O         0.6616302      0.9123508      0.5002248       0.0000000
O         0.7406910      0.0949285      0.5002248       0.0000000
O         0.4707021      0.8298287      0.5002248       0.0000000
Si        0.7528422      0.6645492      0.6426316       0.0000000
Si        0.1854314      0.5155883      0.7428425       0.0000000
Si        0.6592553      0.7522481      0.3567260       0.0000000
Si        0.6596802      0.4810409      0.3591138       0.0000000
O         0.8452955      0.6921681      0.6842091       0.0000000
O         0.6912172      0.5729833      0.6887349       0.0000000
O         0.7251072      0.7275833      0.6905649       0.0000000
O         0.1150782      0.4259818      0.7058144       0.0000000
O         0.2687590      0.5434918      0.6694689       0.0000000
O         0.1545712      0.5784354      0.7113858       0.0000000
O         0.2011299      0.5168852      0.8849996       0.0000000
Si        0.2473752      0.5710138      0.0002248       0.0000000
O         0.3422863      0.5925418      0.0002248       0.0000000
O         0.7498870      0.6633478      0.5002248       0.0000000
O         0.6463701      0.7424087      0.5002248       0.0000000
O         0.6414810      0.4724198      0.5002248       0.0000000
Si        0.9088793      0.2466554      0.3578179       0.0000000
Si        0.3273292      0.8140662      0.2576071       0.0000000
Si        0.0901651      0.3402423      0.6437236       0.0000000
Si        0.8185330      0.3398173      0.6413358       0.0000000
O         0.8440449      0.1542020      0.3162405       0.0000000
O         0.8789384      0.3082803      0.3117146       0.0000000
O         0.9996485      0.2743903      0.3098847       0.0000000
O         0.3080760      0.8844194      0.2946352       0.0000000
O         0.2719052      0.7307386      0.3309806       0.0000000
O         0.4210365      0.8449264      0.2890638       0.0000000
O         0.3129276      0.7983676      0.1154500       0.0000000
Si        0.6628315      0.9105969      0.3578179       0.0000000
Si        0.5138707      0.3290469      0.2576071       0.0000000
Si        0.7505305      0.0918828      0.6437236       0.0000000
Si        0.4793233      0.8202506      0.6413358       0.0000000
O         0.6904504      0.8457625      0.3162405       0.0000000
O         0.5712657      0.8806560      0.3117146       0.0000000
O         0.7258657      0.0013661      0.3098847       0.0000000
O         0.4242642      0.3097936      0.2946352       0.0000000
O         0.5417742      0.2736228      0.3309806       0.0000000
O         0.5767177      0.4227542      0.2890638       0.0000000
O         0.5151675      0.3146452      0.1154500       0.0000000
Si        0.7528422      0.6645492      0.3578179       0.0000000
Si        0.1854314      0.5155883      0.2576071       0.0000000
Si        0.6592553      0.7522481      0.6437236       0.0000000
Si        0.6596802      0.4810409      0.6413358       0.0000000
O         0.8452955      0.6921681      0.3162405       0.0000000
O         0.6912172      0.5729833      0.3117146       0.0000000
O         0.7251072      0.7275833      0.3098847       0.0000000
O         0.1150782      0.4259818      0.2946352       0.0000000
O         0.2687590      0.5434918      0.3309806       0.0000000
O         0.1545712      0.5784354      0.2890638       0.0000000
O         0.2011299      0.5168852      0.1154500       0.0000000
Si        0.0889006      0.7545598      0.3578179       0.0000000
Si        0.6704507      0.1871490      0.2576071       0.0000000
Si        0.9076148      0.6609729      0.6437236       0.0000000
Si        0.1792469      0.6613979      0.6413358       0.0000000
O         0.1537350      0.8470132      0.3162405       0.0000000
O         0.1188415      0.6929349      0.3117146       0.0000000
O         0.9981315      0.7268248      0.3098847       0.0000000
O         0.6897039      0.1167958      0.2946352       0.0000000
O         0.7258747      0.2704766      0.3309806       0.0000000
O         0.5767434      0.1562888      0.2890638       0.0000000
O         0.6848523      0.2028475      0.1154500       0.0000000
Si        0.3349484      0.0906183      0.3578179       0.0000000
Si        0.4839092      0.6721683      0.2576071       0.0000000
Si        0.2472494      0.9093324      0.6437236       0.0000000
Si        0.5184566      0.1809645      0.6413358       0.0000000
O         0.3073294      0.1554527      0.3162405       0.0000000
O         0.4265142      0.1205592      0.3117146       0.0000000
O         0.2719142      0.9998491      0.3098847       0.0000000
O         0.5735157      0.6914216      0.2946352       0.0000000
O         0.4560057      0.7275924      0.3309806       0.0000000
O         0.4210621      0.5784610      0.2890638       0.0000000
O         0.4826124      0.6865699      0.1154500       0.0000000
Si        0.2449377      0.3366660      0.3578179       0.0000000
Si        0.8123485      0.4856269      0.2576071       0.0000000
Si        0.3385246      0.2489671      0.6437236       0.0000000
Si        0.3380997      0.5201743      0.6413358       0.0000000
O         0.1524844      0.3090471      0.3162405       0.0000000
O         0.3065627      0.4282319      0.3117146       0.0000000
O         0.2726727      0.2736318      0.3098847       0.0000000
O         0.8827018      0.5752333      0.2946352       0.0000000
O         0.7290210      0.4577234      0.3309806       0.0000000
O         0.8432087      0.4227798      0.2890638       0.0000000
O         0.7966500      0.4843300      0.1154500       0.0000000
space
 1
supercell 1 1 1
species
O  core  O  core
O  shel  O  shel
Si core  Si core
library catlow nodump
output cif ReferenceDataBase/8325000_111_opt
dump every 1 ReferenceDataBase/8325000_111.grs
