opti conv nosymm shellonly
name     ReferenceDataBase/8328529_111
switch_min rfo gnorm 0.08
cuts 1.1
stepmx opt 0.1
switch_stepmx 0.3 gnorm 0.005
maxcyc 500
cell
 22.52930  22.52930  20.05750  90.00000  90.00000 120.00000
fractional
Si        0.9216529      0.7214509      0.6234385       0.0000000
Si        0.2808008      0.2114629      0.7781817       0.0000000
Si        0.5651873      0.7206466      0.4273791       0.0000000
Si        0.6643049      0.2014268      0.9274828       0.0000000
Si        0.8490558      0.5709944      0.8084810       0.0000000
Si        0.0770910      0.4739712      0.3151242       0.0000000
O         0.9180895      0.7009067      0.7007957       0.0000000
O         0.8995110      0.6534901      0.5813273       0.0000000
O         0.3500653      0.2573978      0.8193651       0.0000000
O         0.5274747      0.6539817      0.3814200       0.0000000
O         0.6801434      0.1545606      0.8790277       0.0000000
O         0.8796900      0.5426609      0.7537700       0.0000000
O         0.8712386      0.7515041      0.6086859       0.0000000
O         0.5925540      0.1941349      0.9063046       0.0000000
O         0.7732043      0.5554356      0.7864397       0.0000000
O         0.9977190      0.7796446      0.6025928       0.0000000
O         0.9977190      0.4128818      0.3175049       0.0000000
O         0.2505847      0.1308978      0.7928594       0.0000000
O         0.2232086      0.2299546      0.7997273       0.0000000
O         0.5406761      0.6974504      0.5029250       0.0000000
O         0.5475569      0.7793839      0.4047504       0.0000000
O         0.0812133      0.5462121      0.3096684       0.0000000
O         0.7213281      0.2808558      0.9205570       0.0000000
O         0.6618757      0.1754697      0.0029250       0.0000000
Si        0.2046669      0.9283988      0.6234386       0.0000000
Si        0.0738028      0.2875467      0.7781817       0.0000000
Si        0.8490057      0.5719333      0.4273791       0.0000000
Si        0.4673430      0.6710508      0.9274828       0.0000000
Si        0.2825263      0.8558017      0.8084810       0.0000000
Si        0.6075847      0.0838369      0.3151242       0.0000000
O         0.2216478      0.9248354      0.7007957       0.0000000
O         0.2504859      0.9062569      0.5813273       0.0000000
O         0.0971324      0.3568113      0.8193651       0.0000000
O         0.8779580      0.5342206      0.3814200       0.0000000
O         0.5300477      0.6868893      0.8790277       0.0000000
O         0.3414941      0.8864359      0.7537700       0.0000000
O         0.1241994      0.8779845      0.6086859       0.0000000
O         0.4028840      0.5993000      0.9063046       0.0000000
O         0.2222337      0.7799503      0.7864397       0.0000000
O         0.2225394      0.0044649      0.6025928       0.0000000
O         0.5893022      0.0044649      0.3175049       0.0000000
O         0.1241519      0.2573307      0.7928594       0.0000000
O         0.9977190      0.2299546      0.7997273       0.0000000
O         0.8476906      0.5474221      0.5029250       0.0000000
O         0.7726380      0.5543029      0.4047504       0.0000000
O         0.5394661      0.0879592      0.3096684       0.0000000
O         0.4449373      0.7280741      0.9205570       0.0000000
O         0.4908710      0.6686217      0.0029250       0.0000000
Si        0.2807330      0.2114128      0.6234385       0.0000000
Si        0.7907211      0.0805488      0.7781817       0.0000000
Si        0.2815374      0.8557516      0.4273791       0.0000000
Si        0.8007572      0.4740889      0.9274828       0.0000000
Si        0.4311895      0.2892722      0.8084810       0.0000000
Si        0.5282127      0.6143306      0.3151242       0.0000000
O         0.3012773      0.2283937      0.7007957       0.0000000
O         0.3486939      0.2572319      0.5813273       0.0000000
O         0.7447862      0.1038784      0.8193652       0.0000000
O         0.3482023      0.8847039      0.3814200       0.0000000
O         0.8476234      0.5367937      0.8790277       0.0000000
O         0.4595231      0.3482400      0.7537700       0.0000000
O         0.2506799      0.1309454      0.6086859       0.0000000
O         0.8080491      0.4096300      0.9063046       0.0000000
O         0.4467483      0.2289796      0.7864397       0.0000000
O         0.2225393      0.2292853      0.6025929       0.0000000
O         0.5893022      0.5960481      0.3175048       0.0000000
O         0.8712862      0.1308978      0.7928593       0.0000000
O         0.7722294      0.0044650      0.7997273       0.0000000
O         0.3047336      0.8544366      0.5029250       0.0000000
O         0.2228001      0.7793839      0.4047504       0.0000000
O         0.4559719      0.5462121      0.3096684       0.0000000
O         0.7213281      0.4516833      0.9205570       0.0000000
O         0.8267143      0.4976170      0.0029250       0.0000000
Si        0.0737852      0.2874790      0.6234385       0.0000000
Si        0.7146372      0.7974670      0.7781817       0.0000000
Si        0.4302506      0.2882833      0.4273791       0.0000000
Si        0.3311332      0.8075031      0.9274828       0.0000000
Si        0.1463822      0.4379354      0.8084810       0.0000000
Si        0.9183470      0.5349587      0.3151242       0.0000000
O         0.0773485      0.3080232      0.7007957       0.0000000
O         0.0959270      0.3554399      0.5813273       0.0000000
O         0.6453727      0.7515321      0.8193651       0.0000000
O         0.4679633      0.3549483      0.3814200       0.0000000
O         0.3152947      0.8543693      0.8790277       0.0000000
O         0.1157480      0.4662690      0.7537700       0.0000000
O         0.1241994      0.2574258      0.6086859       0.0000000
O         0.4028840      0.8147950      0.9063046       0.0000000
O         0.2222337      0.4534943      0.7864397       0.0000000
O         0.9977190      0.2292853      0.6025928       0.0000000
O         0.9977190      0.5960481      0.3175049       0.0000000
O         0.7448533      0.8780321      0.7928594       0.0000000
O         0.7722294      0.7789753      0.7997273       0.0000000
O         0.4547619      0.3114795      0.5029250       0.0000000
O         0.4478811      0.2295460      0.4047504       0.0000000
O         0.9142247      0.4627178      0.3096684       0.0000000
O         0.2741099      0.7280741      0.9205570       0.0000000
O         0.3335623      0.8334602      0.0029250       0.0000000
Si        0.7907711      0.0805311      0.6234386       0.0000000
Si        0.9216352      0.7213832      0.7781817       0.0000000
Si        0.1464323      0.4369966      0.4273791       0.0000000
Si        0.5280950      0.3378791      0.9274828       0.0000000
Si        0.7129117      0.1531282      0.8084810       0.0000000
Si        0.3878533      0.9250930      0.3151242       0.0000000
O         0.7737902      0.0840944      0.7007957       0.0000000
O         0.7449521      0.1026730      0.5813273       0.0000000
O         0.8983055      0.6521186      0.8193651       0.0000000
O         0.1174800      0.4747093      0.3814200       0.0000000
O         0.4653903      0.3220406      0.8790277       0.0000000
O         0.6539440      0.1224940      0.7537700       0.0000000
O         0.8712386      0.1309454      0.6086859       0.0000000
O         0.5925540      0.4096300      0.9063046       0.0000000
O         0.7732043      0.2289796      0.7864397       0.0000000
O         0.7728987      0.0044650      0.6025928       0.0000000
O         0.4061359      0.0044650      0.3175049       0.0000000
O         0.8712862      0.7515993      0.7928594       0.0000000
O         0.9977190      0.7789753      0.7997273       0.0000000
O         0.1477473      0.4615079      0.5029250       0.0000000
O         0.2228000      0.4546270      0.4047504       0.0000000
O         0.4559719      0.9209707      0.3096684       0.0000000
O         0.5505007      0.2808558      0.9205570       0.0000000
O         0.5045670      0.3403082      0.0029250       0.0000000
Si        0.7147049      0.7975171      0.6234385       0.0000000
Si        0.2047170      0.9283811      0.7781817       0.0000000
Si        0.7139006      0.1531782      0.4273791       0.0000000
Si        0.1946809      0.5348409      0.9274828       0.0000000
Si        0.5642485      0.7196577      0.8084810       0.0000000
Si        0.4672253      0.3945993      0.3151242       0.0000000
O         0.6941608      0.7805362      0.7007957       0.0000000
O         0.6467441      0.7516980      0.5813273       0.0000000
O         0.2506518      0.9050515      0.8193652       0.0000000
O         0.6472357      0.1242260      0.3814200       0.0000000
O         0.1478146      0.4721362      0.8790277       0.0000000
O         0.5359150      0.6606899      0.7537700       0.0000000
O         0.7447581      0.8779845      0.6086859       0.0000000
O         0.1873889      0.5992999      0.9063046       0.0000000
O         0.5486897      0.7799503      0.7864397       0.0000000
O         0.7728987      0.7796446      0.6025929       0.0000000
O         0.4061359      0.4128818      0.3175048       0.0000000
O         0.1241518      0.8780321      0.7928593       0.0000000
O         0.2232086      0.0044650      0.7997273       0.0000000
O         0.6907044      0.1544933      0.5029250       0.0000000
O         0.7726379      0.2295460      0.4047504       0.0000000
O         0.5394661      0.4627178      0.3096684       0.0000000
O         0.2741098      0.5572466      0.9205570       0.0000000
O         0.1687237      0.5113129      0.0029250       0.0000000
Si        0.2807331      0.0805311      0.3824115       0.0000000
Si        0.7907211      0.7213832      0.2276683       0.0000000
Si        0.2815374      0.4369966      0.5784709       0.0000000
Si        0.8007571      0.3378791      0.0783672       0.0000000
Si        0.4311895      0.1531282      0.1973690       0.0000000
Si        0.5282127      0.9250930      0.6907258       0.0000000
O         0.3012773      0.0840945      0.3050543       0.0000000
O         0.3486939      0.1026729      0.4245227       0.0000000
O         0.7447861      0.6521186      0.1864848       0.0000000
O         0.3482023      0.4747092      0.6244300       0.0000000
O         0.8476234      0.3220406      0.1268223       0.0000000
O         0.4595231      0.1224940      0.2520800       0.0000000
O         0.2506799      0.1309454      0.3971642       0.0000000
O         0.8080491      0.4096300      0.0995454       0.0000000
O         0.4467483      0.2289796      0.2194103       0.0000000
O         0.2225394      0.0044649      0.4032572       0.0000000
O         0.5893022      0.0044649      0.6883452       0.0000000
O         0.8712862      0.7515993      0.2129906       0.0000000
O         0.7722294      0.7789753      0.2061227       0.0000000
O         0.3047335      0.4615078      0.5029250       0.0000000
O         0.2228000      0.4546270      0.6010996       0.0000000
O         0.4559719      0.9209707      0.6961817       0.0000000
O         0.7213281      0.2808558      0.0852930       0.0000000
O         0.8267143      0.3403082      0.0029250       0.0000000
Si        0.2046669      0.2874790      0.3824115       0.0000000
Si        0.0738028      0.7974670      0.2276683       0.0000000
Si        0.8490057      0.2882833      0.5784709       0.0000000
Si        0.4673430      0.8075031      0.0783672       0.0000000
Si        0.2825263      0.4379354      0.1973690       0.0000000
Si        0.6075847      0.5349587      0.6907258       0.0000000
O         0.2216477      0.3080232      0.3050543       0.0000000
O         0.2504859      0.3554398      0.4245227       0.0000000
O         0.0971325      0.7515321      0.1864848       0.0000000
O         0.8779580      0.3549483      0.6244300       0.0000000
O         0.5300477      0.8543693      0.1268223       0.0000000
O         0.3414941      0.4662690      0.2520800       0.0000000
O         0.1241994      0.2574258      0.3971642       0.0000000
O         0.4028840      0.8147950      0.0995454       0.0000000
O         0.2222337      0.4534943      0.2194103       0.0000000
O         0.2225393      0.2292853      0.4032572       0.0000000
O         0.5893022      0.5960481      0.6883452       0.0000000
O         0.1241518      0.8780321      0.2129907       0.0000000
O         0.9977190      0.7789753      0.2061227       0.0000000
O         0.8476906      0.3114795      0.5029250       0.0000000
O         0.7726379      0.2295460      0.6010996       0.0000000
O         0.5394661      0.4627178      0.6961817       0.0000000
O         0.4449373      0.7280741      0.0852930       0.0000000
O         0.4908710      0.8334603      0.0029250       0.0000000
Si        0.9216529      0.2114129      0.3824115       0.0000000
Si        0.2808008      0.0805488      0.2276683       0.0000000
Si        0.5651873      0.8557517      0.5784709       0.0000000
Si        0.6643049      0.4740889      0.0783672       0.0000000
Si        0.8490558      0.2892722      0.1973690       0.0000000
Si        0.0770910      0.6143306      0.6907258       0.0000000
O         0.9180895      0.2283938      0.3050543       0.0000000
O         0.8995110      0.2572318      0.4245227       0.0000000
O         0.3500653      0.1038784      0.1864849       0.0000000
O         0.5274747      0.8847039      0.6244300       0.0000000
O         0.6801433      0.5367937      0.1268223       0.0000000
O         0.8796900      0.3482400      0.2520800       0.0000000
O         0.8712386      0.1309454      0.3971641       0.0000000
O         0.5925540      0.4096300      0.0995454       0.0000000
O         0.7732043      0.2289796      0.2194103       0.0000000
O         0.9977190      0.2292853      0.4032572       0.0000000
O         0.9977190      0.5960481      0.6883452       0.0000000
O         0.2505847      0.1308978      0.2129906       0.0000000
O         0.2232086      0.0044650      0.2061227       0.0000000
O         0.5406761      0.8544366      0.5029250       0.0000000
O         0.5475569      0.7793839      0.6010996       0.0000000
O         0.0812133      0.5462121      0.6961817       0.0000000
O         0.7213281      0.4516833      0.0852930       0.0000000
O         0.6618757      0.4976169      0.0029250       0.0000000
Si        0.7147049      0.9283988      0.3824115       0.0000000
Si        0.2047170      0.2875467      0.2276683       0.0000000
Si        0.7139006      0.5719333      0.5784709       0.0000000
Si        0.1946809      0.6710508      0.0783672       0.0000000
Si        0.5642485      0.8558017      0.1973690       0.0000000
Si        0.4672253      0.0838369      0.6907258       0.0000000
O         0.6941608      0.9248354      0.3050543       0.0000000
O         0.6467441      0.9062570      0.4245227       0.0000000
O         0.2506519      0.3568113      0.1864848       0.0000000
O         0.6472357      0.5342206      0.6244300       0.0000000
O         0.1478146      0.6868893      0.1268223       0.0000000
O         0.5359149      0.8864359      0.2520800       0.0000000
O         0.7447581      0.8779845      0.3971642       0.0000000
O         0.1873889      0.5992999      0.0995454       0.0000000
O         0.5486897      0.7799503      0.2194103       0.0000000
O         0.7728987      0.0044650      0.4032572       0.0000000
O         0.4061359      0.0044650      0.6883451       0.0000000
O         0.1241519      0.2573307      0.2129906       0.0000000
O         0.2232086      0.2299546      0.2061227       0.0000000
O         0.6907045      0.5474221      0.5029250       0.0000000
O         0.7726380      0.5543029      0.6010996       0.0000000
O         0.5394661      0.0879592      0.6961817       0.0000000
O         0.2741099      0.7280741      0.0852930       0.0000000
O         0.1687237      0.6686217      0.0029250       0.0000000
Si        0.7907711      0.7214509      0.3824115       0.0000000
Si        0.9216352      0.2114629      0.2276683       0.0000000
Si        0.1464323      0.7206466      0.5784709       0.0000000
Si        0.5280950      0.2014268      0.0783672       0.0000000
Si        0.7129117      0.5709944      0.1973690       0.0000000
Si        0.3878533      0.4739712      0.6907258       0.0000000
O         0.7737902      0.7009067      0.3050543       0.0000000
O         0.7449521      0.6534901      0.4245227       0.0000000
O         0.8983055      0.2573978      0.1864848       0.0000000
O         0.1174800      0.6539817      0.6244300       0.0000000
O         0.4653903      0.1545606      0.1268223       0.0000000
O         0.6539440      0.5426609      0.2520800       0.0000000
O         0.8712386      0.7515041      0.3971642       0.0000000
O         0.5925540      0.1941349      0.0995454       0.0000000
O         0.7732043      0.5554356      0.2194103       0.0000000
O         0.7728987      0.7796446      0.4032572       0.0000000
O         0.4061359      0.4128818      0.6883452       0.0000000
O         0.8712862      0.1308978      0.2129907       0.0000000
O         0.9977190      0.2299546      0.2061227       0.0000000
O         0.1477473      0.6974504      0.5029250       0.0000000
O         0.2228001      0.7793839      0.6010996       0.0000000
O         0.4559719      0.5462121      0.6961817       0.0000000
O         0.5505007      0.2808558      0.0852930       0.0000000
O         0.5045670      0.1754696      0.0029250       0.0000000
Si        0.0737852      0.7975171      0.3824115       0.0000000
Si        0.7146372      0.9283811      0.2276683       0.0000000
Si        0.4302507      0.1531782      0.5784709       0.0000000
Si        0.3311332      0.5348410      0.0783672       0.0000000
Si        0.1463822      0.7196577      0.1973690       0.0000000
Si        0.9183471      0.3945993      0.6907258       0.0000000
O         0.0773485      0.7805362      0.3050543       0.0000000
O         0.0959270      0.7516981      0.4245227       0.0000000
O         0.6453727      0.9050515      0.1864849       0.0000000
O         0.4679633      0.1242260      0.6244300       0.0000000
O         0.3152947      0.4721362      0.1268223       0.0000000
O         0.1157480      0.6606899      0.2520800       0.0000000
O         0.1241994      0.8779845      0.3971641       0.0000000
O         0.4028840      0.5993000      0.0995454       0.0000000
O         0.2222337      0.7799503      0.2194103       0.0000000
O         0.9977190      0.7796446      0.4032572       0.0000000
O         0.9977190      0.4128818      0.6883451       0.0000000
O         0.7448533      0.8780321      0.2129906       0.0000000
O         0.7722294      0.0044650      0.2061227       0.0000000
O         0.4547619      0.1544933      0.5029250       0.0000000
O         0.4478811      0.2295460      0.6010996       0.0000000
O         0.9142247      0.4627178      0.6961817       0.0000000
O         0.2741098      0.5572466      0.0852930       0.0000000
O         0.3335623      0.5113130      0.0029250       0.0000000
Si        0.0737852      0.2874790      0.3824115       0.0000000
Si        0.7146372      0.7974670      0.2276683       0.0000000
Si        0.4302506      0.2882833      0.5784709       0.0000000
Si        0.3311332      0.8075031      0.0783672       0.0000000
Si        0.1463822      0.4379354      0.1973690       0.0000000
Si        0.9183470      0.5349587      0.6907258       0.0000000
O         0.0773485      0.3080232      0.3050543       0.0000000
O         0.0959270      0.3554399      0.4245227       0.0000000
O         0.6453727      0.7515321      0.1864848       0.0000000
O         0.4679633      0.3549483      0.6244300       0.0000000
O         0.3152947      0.8543693      0.1268223       0.0000000
O         0.1157480      0.4662690      0.2520800       0.0000000
Si        0.7907711      0.0805311      0.3824115       0.0000000
Si        0.9216352      0.7213832      0.2276683       0.0000000
Si        0.1464323      0.4369966      0.5784709       0.0000000
Si        0.5280950      0.3378791      0.0783672       0.0000000
Si        0.7129117      0.1531282      0.1973690       0.0000000
Si        0.3878533      0.9250930      0.6907258       0.0000000
O         0.7737902      0.0840944      0.3050543       0.0000000
O         0.7449521      0.1026730      0.4245227       0.0000000
O         0.8983055      0.6521186      0.1864849       0.0000000
O         0.1174800      0.4747093      0.6244300       0.0000000
O         0.4653903      0.3220406      0.1268223       0.0000000
O         0.6539440      0.1224940      0.2520800       0.0000000
Si        0.7147049      0.7975171      0.3824115       0.0000000
Si        0.2047170      0.9283811      0.2276683       0.0000000
Si        0.7139006      0.1531782      0.5784709       0.0000000
Si        0.1946809      0.5348409      0.0783672       0.0000000
Si        0.5642485      0.7196577      0.1973690       0.0000000
Si        0.4672253      0.3945993      0.6907258       0.0000000
O         0.6941608      0.7805362      0.3050543       0.0000000
O         0.6467441      0.7516980      0.4245227       0.0000000
O         0.2506518      0.9050515      0.1864848       0.0000000
O         0.6472357      0.1242260      0.6244300       0.0000000
O         0.1478146      0.4721362      0.1268223       0.0000000
O         0.5359150      0.6606899      0.2520800       0.0000000
Si        0.9216529      0.7214509      0.3824115       0.0000000
Si        0.2808008      0.2114629      0.2276683       0.0000000
Si        0.5651873      0.7206466      0.5784709       0.0000000
Si        0.6643049      0.2014268      0.0783672       0.0000000
Si        0.8490558      0.5709944      0.1973690       0.0000000
Si        0.0770910      0.4739712      0.6907258       0.0000000
O         0.9180895      0.7009067      0.3050543       0.0000000
O         0.8995110      0.6534901      0.4245227       0.0000000
O         0.3500653      0.2573978      0.1864848       0.0000000
O         0.5274747      0.6539817      0.6244300       0.0000000
O         0.6801434      0.1545606      0.1268223       0.0000000
O         0.8796900      0.5426609      0.2520800       0.0000000
Si        0.2046669      0.9283988      0.3824115       0.0000000
Si        0.0738028      0.2875467      0.2276683       0.0000000
Si        0.8490057      0.5719333      0.5784709       0.0000000
Si        0.4673430      0.6710508      0.0783672       0.0000000
Si        0.2825263      0.8558017      0.1973690       0.0000000
Si        0.6075847      0.0838369      0.6907258       0.0000000
O         0.2216478      0.9248354      0.3050543       0.0000000
O         0.2504859      0.9062569      0.4245227       0.0000000
O         0.0971324      0.3568113      0.1864849       0.0000000
O         0.8779580      0.5342206      0.6244300       0.0000000
O         0.5300477      0.6868893      0.1268223       0.0000000
O         0.3414941      0.8864359      0.2520800       0.0000000
Si        0.2807330      0.2114128      0.3824115       0.0000000
Si        0.7907211      0.0805488      0.2276683       0.0000000
Si        0.2815374      0.8557516      0.5784709       0.0000000
Si        0.8007572      0.4740889      0.0783672       0.0000000
Si        0.4311895      0.2892722      0.1973690       0.0000000
Si        0.5282127      0.6143306      0.6907258       0.0000000
O         0.3012773      0.2283937      0.3050543       0.0000000
O         0.3486939      0.2572319      0.4245227       0.0000000
O         0.7447862      0.1038784      0.1864848       0.0000000
O         0.3482023      0.8847039      0.6244300       0.0000000
O         0.8476234      0.5367937      0.1268223       0.0000000
O         0.4595231      0.3482400      0.2520800       0.0000000
Si        0.7147049      0.9283988      0.6234385       0.0000000
Si        0.2047170      0.2875467      0.7781817       0.0000000
Si        0.7139006      0.5719333      0.4273791       0.0000000
Si        0.1946809      0.6710508      0.9274828       0.0000000
Si        0.5642485      0.8558017      0.8084810       0.0000000
Si        0.4672253      0.0838369      0.3151242       0.0000000
O         0.6941608      0.9248354      0.7007957       0.0000000
O         0.6467441      0.9062570      0.5813273       0.0000000
O         0.2506519      0.3568113      0.8193651       0.0000000
O         0.6472357      0.5342206      0.3814200       0.0000000
O         0.1478146      0.6868893      0.8790277       0.0000000
O         0.5359149      0.8864359      0.7537700       0.0000000
Si        0.7907711      0.7214509      0.6234385       0.0000000
Si        0.9216352      0.2114629      0.7781817       0.0000000
Si        0.1464323      0.7206466      0.4273791       0.0000000
Si        0.5280950      0.2014268      0.9274828       0.0000000
Si        0.7129117      0.5709944      0.8084810       0.0000000
Si        0.3878533      0.4739712      0.3151242       0.0000000
O         0.7737902      0.7009067      0.7007957       0.0000000
O         0.7449521      0.6534901      0.5813273       0.0000000
O         0.8983055      0.2573978      0.8193652       0.0000000
O         0.1174800      0.6539817      0.3814200       0.0000000
O         0.4653903      0.1545606      0.8790277       0.0000000
O         0.6539440      0.5426609      0.7537700       0.0000000
Si        0.0737852      0.7975171      0.6234386       0.0000000
Si        0.7146372      0.9283811      0.7781817       0.0000000
Si        0.4302507      0.1531782      0.4273791       0.0000000
Si        0.3311332      0.5348410      0.9274828       0.0000000
Si        0.1463822      0.7196577      0.8084810       0.0000000
Si        0.9183471      0.3945993      0.3151242       0.0000000
O         0.0773485      0.7805362      0.7007957       0.0000000
O         0.0959270      0.7516981      0.5813273       0.0000000
O         0.6453727      0.9050515      0.8193651       0.0000000
O         0.4679633      0.1242260      0.3814200       0.0000000
O         0.3152947      0.4721362      0.8790277       0.0000000
O         0.1157480      0.6606899      0.7537700       0.0000000
Si        0.2807331      0.0805311      0.6234385       0.0000000
Si        0.7907211      0.7213832      0.7781817       0.0000000
Si        0.2815374      0.4369966      0.4273791       0.0000000
Si        0.8007571      0.3378791      0.9274828       0.0000000
Si        0.4311895      0.1531282      0.8084810       0.0000000
Si        0.5282127      0.9250930      0.3151242       0.0000000
O         0.3012773      0.0840945      0.7007957       0.0000000
O         0.3486939      0.1026729      0.5813273       0.0000000
O         0.7447861      0.6521186      0.8193651       0.0000000
O         0.3482023      0.4747092      0.3814200       0.0000000
O         0.8476234      0.3220406      0.8790277       0.0000000
O         0.4595231      0.1224940      0.7537700       0.0000000
Si        0.2046669      0.2874790      0.6234385       0.0000000
Si        0.0738028      0.7974670      0.7781817       0.0000000
Si        0.8490057      0.2882833      0.4273791       0.0000000
Si        0.4673430      0.8075031      0.9274828       0.0000000
Si        0.2825263      0.4379354      0.8084810       0.0000000
Si        0.6075847      0.5349587      0.3151242       0.0000000
O         0.2216477      0.3080232      0.7007957       0.0000000
O         0.2504859      0.3554398      0.5813273       0.0000000
O         0.0971325      0.7515321      0.8193652       0.0000000
O         0.8779580      0.3549483      0.3814200       0.0000000
O         0.5300477      0.8543693      0.8790277       0.0000000
O         0.3414941      0.4662690      0.7537700       0.0000000
Si        0.9216529      0.2114129      0.6234386       0.0000000
Si        0.2808008      0.0805488      0.7781817       0.0000000
Si        0.5651873      0.8557517      0.4273791       0.0000000
Si        0.6643049      0.4740889      0.9274828       0.0000000
Si        0.8490558      0.2892722      0.8084810       0.0000000
Si        0.0770910      0.6143306      0.3151242       0.0000000
O         0.9180895      0.2283938      0.7007957       0.0000000
O         0.8995110      0.2572318      0.5813273       0.0000000
O         0.3500653      0.1038784      0.8193651       0.0000000
O         0.5274747      0.8847039      0.3814200       0.0000000
O         0.6801433      0.5367937      0.8790277       0.0000000
O         0.8796900      0.3482400      0.7537700       0.0000000
space
 1
supercell 1 1 1
species
O  core  O  core
O  shel  O  shel
Si core  Si core
library catlow nodump
output cif ReferenceDataBase/8328529_111_opt
dump every 1 ReferenceDataBase/8328529_111.grs
