FAU_CatlowFF                            
   1.0000000000000000     
    17.1696336229292257    0.0000397193882576    0.0000218787218956
     8.5848513625067397   14.8693011116963572    0.0000341345013974
     8.5848461086314067    4.9564687022866725   14.0189194688463878
  Si              O             
    48    96
Direct
     0.8388085185883369    0.4838156322478255    0.6608125989377953
     0.4838302724576167    0.8387979643087249    0.0165536907960089
     0.6608132139732135    0.0165521386496366    0.8388112762543258
     0.0165575915676115    0.6608095323583427    0.4838184194398423
     0.6608129364988926    0.8388025405805806    0.4838193471531440
     0.0165534678250694    0.4838245337650662    0.8388056810660274
     0.8388126441788444    0.6608070318371588    0.0165599278616781
     0.4838207808737849    0.0165497623153712    0.6608161722581301
     0.4838192480948962    0.6608064811760883    0.8388094280198999
     0.8388055207081990    0.0165457290202156    0.4838305422465297
     0.0165602363199397    0.8388041593177462    0.6608133268388912
     0.6608152905406399    0.4838147671251321    0.0165573376696031
     0.4111953003877318    0.7661643328034700    0.2334494219346865
     0.7661810735678927    0.4111848416102220    0.5891888304445203
     0.5891840871165215    0.2334377662468015    0.7661812120637350
     0.2334427833775976    0.5891791780699478    0.4111903433373882
     0.5891873315793390    0.4111832854978132    0.2334424688440677
     0.2334452153787865    0.7661743997408479    0.5891826574263064
     0.4111927452827899    0.5891809495073232    0.7661797072967431
     0.7661716467782966    0.2334422264923148    0.4111961917954332
     0.7661805252449767    0.5891759267883288    0.2334450911296599
     0.4111905514699217    0.2334363739024070    0.5891868018490882
     0.2334484308943061    0.4111884925807274    0.7661711860636231
     0.5891869014258546    0.7661742900283031    0.4111913111491248
     0.4111913131758200    0.7661743200713076    0.5891868558524322
     0.7661711175162509    0.4111885331576346    0.2334484614716885
     0.5891868250008940    0.2334363480603585    0.4111905657252990
     0.2334450936211496    0.5891759306071762    0.7661805107623891
     0.5891887975668766    0.4111848568819028    0.7661810625475312
     0.2334494207341038    0.7661643569125474    0.4111952760721280
     0.4111903561766468    0.5891791292064141    0.2334428601831746
     0.7661811679831061    0.2334377921051782    0.5891840902257997
     0.7661797247452142    0.5891809603967886    0.4111927692860391
     0.4111961392601415    0.2334422082293273    0.7661717089625100
     0.2334424011162994    0.4111832401203515    0.5891873486558410
     0.5891826828953484    0.7661743384126325    0.2334452160262117
     0.8388056407560924    0.4838245614092003    0.0165534751097596
     0.4838193373331094    0.8388025517601818    0.6608129102463920
     0.6608161593084390    0.0165498021262067    0.4838207433924566
     0.0165599999731612    0.6608069957351148    0.8388126372454110
     0.6608133592864078    0.8388040791919877    0.0165601742077399
     0.0165573408946855    0.4838147194330418    0.6608153053429646
     0.8388094329199802    0.6608064899761956    0.4838192728360085
     0.4838305711681485    0.0165457138036871    0.8388054980485791
     0.4838184341742604    0.6608095523380868    0.0165575657200208
     0.8388112830089227    0.0165521092605303    0.6608132394948996
     0.0165537220424525    0.8387980102505423    0.4838301936597560
     0.6608125554216500    0.4838156547142773    0.8388085355660877
     0.8356835087250190    0.4143122144953395    0.6249998541168509
     0.4143362667494870    0.8356622461058194    0.1250001464530541
     0.6249766985816194    0.1249961994953352    0.8356934754179335
     0.1249986832464600    0.6250092122100668    0.4143100811615312
     0.6249994657313707    0.8356784826474026    0.4143184593342326
     0.1250008354044212    0.4143296564638845    0.8356689684228442
     0.8356948912118582    0.6249698191923727    0.1250039307885018
     0.4143133644303845    0.1249927995618023    0.6250144474402433
     0.4143183159705970    0.6249927118918066    0.8356841373608077
     0.8356682175886476    0.1249946055874460    0.4143373455777564
     0.1250022240453035    0.8356877862469929    0.6249764913402842
     0.6250158329781783    0.4143044543217727    0.1249987959069045
     0.4143184779778721    0.8356785367604971    0.6249993705121568
     0.8356688924749633    0.4143296841358435    0.1250008552309723
     0.6250143859479564    0.1249928189534586    0.4143133171173901
     0.1250039312054199    0.6249697843149420    0.8356949650181349
     0.6249997665106761    0.4143122890216020    0.8356835089484278
     0.1250001723835226    0.8356623109533174    0.4143361774820420
     0.4143102054716010    0.6250091523368582    0.1249986882250695
     0.8356934046977216    0.1249962515930818    0.6249766198484537
     0.8356841178009304    0.6249928044129121    0.4143182871814233
     0.4143372771460392    0.1249945551973397    0.8356681843708671
     0.1249987614284649    0.4143043169742242    0.6250159049068955
     0.6249765683362440    0.8356876525504546    0.1250021846611560
     0.8023969427696542    0.5948049394200652    0.5948119474182363
     0.5948238843036080    0.8023902565441361    0.0079677904423008
     0.5948250251183893    0.0079595013693776    0.8023977761722065
     0.0079928913387661    0.5947992849330959    0.5948062317578220
     0.5948115910430971    0.8023906165648427    0.5948116001737489
     0.0079676753610158    0.5948157964950269    0.8024000506601539
     0.8024000642715379    0.5948158187282928    0.0079676184330353
     0.5948078578516558    0.0079822948416890    0.5948078302387714
     0.5948119345679501    0.5948049650355074    0.8023969460666081
     0.8023978950575312    0.0079593537507989    0.5948250250991833
     0.0079678339577427    0.8023904307993632    0.5948237722667145
     0.5948062745274996    0.5947993632822559    0.0079927927636376
     0.4476020812944839    0.6551733037713845    0.2420292855091830
     0.6551901505192177    0.4475983684765197    0.6551901319280873
     0.6551965932983137    0.2419979273943227    0.6551966147218877
     0.2420291990620100    0.6551733537900830    0.4476020796989459
     0.6551803559279890    0.4475968978266494    0.2420282359306967
     0.2420037350955937    0.6551895616518308    0.6551974038701687
     0.4476047884857479    0.6551832074900261    0.6551898708635804
     0.6551795237531977    0.2420227013377882    0.4476044594579633
     0.6551973872640886    0.6551894801817610    0.2420037813353133
     0.4476043048219083    0.2420228500285404    0.6551795306410000
     0.2420281835874647    0.4475967513457135    0.6551804399617467
     0.6551898962556422    0.6551831798458139    0.4476048362306670
     0.7706702195070605    0.4737272960074606    0.7706702531721632
     0.4737485226855327    0.7706667959868838    0.9849097660529864
     0.7706739014751136    0.9849295153647901    0.7706739386160208
     0.9849098208032387    0.7706667542148082    0.4737485569390429
     0.7706698436127155    0.7706649011976623    0.4737310093723579
     0.9849098040245465    0.4737444579107972    0.7706716102751088
     0.7706739342624473    0.7706667580331796    0.9849375153610609
     0.4737489675392297    0.9849027108937207    0.7706733144648013
     0.4737309131079428    0.7706648945714392    0.7706698230536446
     0.7706732771539677    0.9849028637395136    0.4737488646545671
     0.9849376757164663    0.7706667115144938    0.7706738663876251
     0.7706715980625916    0.4737444532252866    0.9849098177294024
     0.4793277358159997    0.7762397492916620    0.2650976410583823
     0.7762680191994349    0.4793239487646446    0.4793302515845141
     0.4793269994292331    0.2650923019678260    0.7762474986623431
     0.2650710455269945    0.4793202244903725    0.4793262862139684
     0.4793262261249041    0.4793201743857409    0.2650712157090567
     0.2650976646751531    0.7762397377015233    0.4793277095898176
     0.4793302297858659    0.4793239542108196    0.7762679206661360
     0.7762473792237259    0.2650924793998328    0.4793269647753604
     0.7762473368700995    0.4793215499680059    0.2650983640613731
     0.4793261723713726    0.2650671214985110    0.4793261612420281
     0.2650983273972116    0.4793216280459305    0.7762472755021008
     0.4793299145337997    0.7762624377986000    0.4793298772286647
     0.9480837437668157    0.4514959114837964    0.6523334584382496
     0.4515028060311508    0.9480762791598991    0.9480824744442771
     0.6523379811209082    0.9480783747754273    0.9480849172873036
     0.9480842188684733    0.6523267644003425    0.4515008931720033
     0.6523334582480658    0.9480779630138088    0.4515009459843142
     0.9480824913733059    0.4514947280563106    0.9480825043330867
     0.9480864792864665    0.6523320849460248    0.9480864614828590
     0.4515009578740603    0.9480779762617502    0.6523334478239207
     0.4515008630212876    0.6523267822323007    0.9480842336255506
     0.9480824584102123    0.9480762982596005    0.4515026507654198
     0.9480848892181228    0.9480784052666920    0.6523381331580111
     0.6523334422085654    0.4514959195509576    0.9480837775340731
     0.3019176210473020    0.7984917532054041    0.3019175983113485
     0.7984983128693557    0.3019100131679195    0.5976701157878281
     0.5976700791143159    0.3019100373387857    0.7984983247216633
     0.3019152513618124    0.5976569881451894    0.3019152501411853
     0.5976657872098841    0.3019082731744334    0.3019159426619566
     0.3019170021585964    0.7984914484554224    0.5976688678300519
     0.3019180480226424    0.5976618331413306    0.7984982432254455
     0.7984978072567444    0.3019107824960514    0.3019182089357386
     0.7984982419503908    0.5976618117815065    0.3019180449097902
     0.3019159594285981    0.3019082545581142    0.5976656320203020
     0.3019182083441549    0.3019107837903476    0.7984979600951405
     0.5976689031150499    0.7984913966946081    0.3019169799551022

  0.00000000E+00  0.00000000E+00  0.00000000E+00
  0.00000000E+00  0.00000000E+00  0.00000000E+00
  0.00000000E+00  0.00000000E+00  0.00000000E+00
  0.00000000E+00  0.00000000E+00  0.00000000E+00
  0.00000000E+00  0.00000000E+00  0.00000000E+00
  0.00000000E+00  0.00000000E+00  0.00000000E+00
  0.00000000E+00  0.00000000E+00  0.00000000E+00
  0.00000000E+00  0.00000000E+00  0.00000000E+00
  0.00000000E+00  0.00000000E+00  0.00000000E+00
  0.00000000E+00  0.00000000E+00  0.00000000E+00
  0.00000000E+00  0.00000000E+00  0.00000000E+00
  0.00000000E+00  0.00000000E+00  0.00000000E+00
  0.00000000E+00  0.00000000E+00  0.00000000E+00
  0.00000000E+00  0.00000000E+00  0.00000000E+00
  0.00000000E+00  0.00000000E+00  0.00000000E+00
  0.00000000E+00  0.00000000E+00  0.00000000E+00
  0.00000000E+00  0.00000000E+00  0.00000000E+00
  0.00000000E+00  0.00000000E+00  0.00000000E+00
  0.00000000E+00  0.00000000E+00  0.00000000E+00
  0.00000000E+00  0.00000000E+00  0.00000000E+00
  0.00000000E+00  0.00000000E+00  0.00000000E+00
  0.00000000E+00  0.00000000E+00  0.00000000E+00
  0.00000000E+00  0.00000000E+00  0.00000000E+00
  0.00000000E+00  0.00000000E+00  0.00000000E+00
  0.00000000E+00  0.00000000E+00  0.00000000E+00
  0.00000000E+00  0.00000000E+00  0.00000000E+00
  0.00000000E+00  0.00000000E+00  0.00000000E+00
  0.00000000E+00  0.00000000E+00  0.00000000E+00
  0.00000000E+00  0.00000000E+00  0.00000000E+00
  0.00000000E+00  0.00000000E+00  0.00000000E+00
  0.00000000E+00  0.00000000E+00  0.00000000E+00
  0.00000000E+00  0.00000000E+00  0.00000000E+00
  0.00000000E+00  0.00000000E+00  0.00000000E+00
  0.00000000E+00  0.00000000E+00  0.00000000E+00
  0.00000000E+00  0.00000000E+00  0.00000000E+00
  0.00000000E+00  0.00000000E+00  0.00000000E+00
  0.00000000E+00  0.00000000E+00  0.00000000E+00
  0.00000000E+00  0.00000000E+00  0.00000000E+00
  0.00000000E+00  0.00000000E+00  0.00000000E+00
  0.00000000E+00  0.00000000E+00  0.00000000E+00
  0.00000000E+00  0.00000000E+00  0.00000000E+00
  0.00000000E+00  0.00000000E+00  0.00000000E+00
  0.00000000E+00  0.00000000E+00  0.00000000E+00
  0.00000000E+00  0.00000000E+00  0.00000000E+00
  0.00000000E+00  0.00000000E+00  0.00000000E+00
  0.00000000E+00  0.00000000E+00  0.00000000E+00
  0.00000000E+00  0.00000000E+00  0.00000000E+00
  0.00000000E+00  0.00000000E+00  0.00000000E+00
  0.00000000E+00  0.00000000E+00  0.00000000E+00
  0.00000000E+00  0.00000000E+00  0.00000000E+00
  0.00000000E+00  0.00000000E+00  0.00000000E+00
  0.00000000E+00  0.00000000E+00  0.00000000E+00
  0.00000000E+00  0.00000000E+00  0.00000000E+00
  0.00000000E+00  0.00000000E+00  0.00000000E+00
  0.00000000E+00  0.00000000E+00  0.00000000E+00
  0.00000000E+00  0.00000000E+00  0.00000000E+00
  0.00000000E+00  0.00000000E+00  0.00000000E+00
  0.00000000E+00  0.00000000E+00  0.00000000E+00
  0.00000000E+00  0.00000000E+00  0.00000000E+00
  0.00000000E+00  0.00000000E+00  0.00000000E+00
  0.00000000E+00  0.00000000E+00  0.00000000E+00
  0.00000000E+00  0.00000000E+00  0.00000000E+00
  0.00000000E+00  0.00000000E+00  0.00000000E+00
  0.00000000E+00  0.00000000E+00  0.00000000E+00
  0.00000000E+00  0.00000000E+00  0.00000000E+00
  0.00000000E+00  0.00000000E+00  0.00000000E+00
  0.00000000E+00  0.00000000E+00  0.00000000E+00
  0.00000000E+00  0.00000000E+00  0.00000000E+00
  0.00000000E+00  0.00000000E+00  0.00000000E+00
  0.00000000E+00  0.00000000E+00  0.00000000E+00
  0.00000000E+00  0.00000000E+00  0.00000000E+00
  0.00000000E+00  0.00000000E+00  0.00000000E+00
  0.00000000E+00  0.00000000E+00  0.00000000E+00
  0.00000000E+00  0.00000000E+00  0.00000000E+00
  0.00000000E+00  0.00000000E+00  0.00000000E+00
  0.00000000E+00  0.00000000E+00  0.00000000E+00
  0.00000000E+00  0.00000000E+00  0.00000000E+00
  0.00000000E+00  0.00000000E+00  0.00000000E+00
  0.00000000E+00  0.00000000E+00  0.00000000E+00
  0.00000000E+00  0.00000000E+00  0.00000000E+00
  0.00000000E+00  0.00000000E+00  0.00000000E+00
  0.00000000E+00  0.00000000E+00  0.00000000E+00
  0.00000000E+00  0.00000000E+00  0.00000000E+00
  0.00000000E+00  0.00000000E+00  0.00000000E+00
  0.00000000E+00  0.00000000E+00  0.00000000E+00
  0.00000000E+00  0.00000000E+00  0.00000000E+00
  0.00000000E+00  0.00000000E+00  0.00000000E+00
  0.00000000E+00  0.00000000E+00  0.00000000E+00
  0.00000000E+00  0.00000000E+00  0.00000000E+00
  0.00000000E+00  0.00000000E+00  0.00000000E+00
  0.00000000E+00  0.00000000E+00  0.00000000E+00
  0.00000000E+00  0.00000000E+00  0.00000000E+00
  0.00000000E+00  0.00000000E+00  0.00000000E+00
  0.00000000E+00  0.00000000E+00  0.00000000E+00
  0.00000000E+00  0.00000000E+00  0.00000000E+00
  0.00000000E+00  0.00000000E+00  0.00000000E+00
  0.00000000E+00  0.00000000E+00  0.00000000E+00
  0.00000000E+00  0.00000000E+00  0.00000000E+00
  0.00000000E+00  0.00000000E+00  0.00000000E+00
  0.00000000E+00  0.00000000E+00  0.00000000E+00
  0.00000000E+00  0.00000000E+00  0.00000000E+00
  0.00000000E+00  0.00000000E+00  0.00000000E+00
  0.00000000E+00  0.00000000E+00  0.00000000E+00
  0.00000000E+00  0.00000000E+00  0.00000000E+00
  0.00000000E+00  0.00000000E+00  0.00000000E+00
  0.00000000E+00  0.00000000E+00  0.00000000E+00
  0.00000000E+00  0.00000000E+00  0.00000000E+00
  0.00000000E+00  0.00000000E+00  0.00000000E+00
  0.00000000E+00  0.00000000E+00  0.00000000E+00
  0.00000000E+00  0.00000000E+00  0.00000000E+00
  0.00000000E+00  0.00000000E+00  0.00000000E+00
  0.00000000E+00  0.00000000E+00  0.00000000E+00
  0.00000000E+00  0.00000000E+00  0.00000000E+00
  0.00000000E+00  0.00000000E+00  0.00000000E+00
  0.00000000E+00  0.00000000E+00  0.00000000E+00
  0.00000000E+00  0.00000000E+00  0.00000000E+00
  0.00000000E+00  0.00000000E+00  0.00000000E+00
  0.00000000E+00  0.00000000E+00  0.00000000E+00
  0.00000000E+00  0.00000000E+00  0.00000000E+00
  0.00000000E+00  0.00000000E+00  0.00000000E+00
  0.00000000E+00  0.00000000E+00  0.00000000E+00
  0.00000000E+00  0.00000000E+00  0.00000000E+00
  0.00000000E+00  0.00000000E+00  0.00000000E+00
  0.00000000E+00  0.00000000E+00  0.00000000E+00
  0.00000000E+00  0.00000000E+00  0.00000000E+00
  0.00000000E+00  0.00000000E+00  0.00000000E+00
  0.00000000E+00  0.00000000E+00  0.00000000E+00
  0.00000000E+00  0.00000000E+00  0.00000000E+00
  0.00000000E+00  0.00000000E+00  0.00000000E+00
  0.00000000E+00  0.00000000E+00  0.00000000E+00
  0.00000000E+00  0.00000000E+00  0.00000000E+00
  0.00000000E+00  0.00000000E+00  0.00000000E+00
  0.00000000E+00  0.00000000E+00  0.00000000E+00
  0.00000000E+00  0.00000000E+00  0.00000000E+00
  0.00000000E+00  0.00000000E+00  0.00000000E+00
  0.00000000E+00  0.00000000E+00  0.00000000E+00
  0.00000000E+00  0.00000000E+00  0.00000000E+00
  0.00000000E+00  0.00000000E+00  0.00000000E+00
  0.00000000E+00  0.00000000E+00  0.00000000E+00
  0.00000000E+00  0.00000000E+00  0.00000000E+00
  0.00000000E+00  0.00000000E+00  0.00000000E+00
  0.00000000E+00  0.00000000E+00  0.00000000E+00
  0.00000000E+00  0.00000000E+00  0.00000000E+00
  0.00000000E+00  0.00000000E+00  0.00000000E+00
